LAMMPS (10 Dec 2025 - Development - patch_10Dec2025-120-ga51f9ba0e7)
OMP_NUM_THREADS environment is not set. Defaulting to 1 thread.
  using 1 OpenMP thread(s) per MPI task
# Finite-T Langevin spin-dynamics stage for mp-754090 (Li4Fe2TeWO12), placeholder-DMI
# effective model -- see in.mp754090_effective.lammps for Hamiltonian, J derivation from
# real DFT, and the explicit "DMI is a placeholder, not DFT" caveat. Do not read physical
# conclusions (Tc, textures, chirality) off this run; it exists to get a first qualitative
# look while the real noncollinear+SOC DFT job for D is pending.
#
# Run via run_scan_parallel_mp754090.sh, one temperature/seed per invocation:
#   -var runtemp <K> -var runseed <int>
#
# Same LAMMPS-build workaround as in.pdfeir_dynamics.lammps: hybrid/overlay segfaults with
# exactly 2 spin substyles on this build, padded to 3 with a zero-strength spin/magelec term.

units           metal
atom_style      spin
dimension       3
boundary        p p p
atom_modify     map array

read_restart    restart.mp754090_T0.equil
Reading restart file ...
  restart file = 10 Dec 2025, LAMMPS = 10 Dec 2025
  restoring atom style spin from restart
  triclinic box = (0 0 0) to (86.604109 72.44143 33.758371) with tilt (47.827887 47.809739 49.151162)
WARNING: Triclinic box skew is large. LAMMPS will run inefficiently. (src/domain.cpp:221)
  1 by 1 by 1 MPI processor grid
  restoring pair style hybrid/overlay from restart
  2048 atoms
  read_restart CPU = 0.001 seconds

variable        j_eff_eV equal 0.012058385
variable        d_shell equal 5.132075
variable        exch_a equal v_j_eff_eV*2.718281828/4.0
variable        rc_exch equal 5.25
variable        d_eV equal 0.003
variable        rc_dmi equal 5.25

pair_style      hybrid/overlay spin/exchange ${rc_exch} spin/dmi ${rc_dmi} spin/magelec ${rc_exch}
pair_style      hybrid/overlay spin/exchange 5.25 spin/dmi ${rc_dmi} spin/magelec ${rc_exch}
pair_style      hybrid/overlay spin/exchange 5.25 spin/dmi 5.25 spin/magelec ${rc_exch}
pair_style      hybrid/overlay spin/exchange 5.25 spin/dmi 5.25 spin/magelec 5.25
pair_coeff      * * spin/exchange exchange ${rc_exch} ${exch_a} 0.0 ${d_shell} offset yes
pair_coeff      * * spin/exchange exchange 5.25 ${exch_a} 0.0 ${d_shell} offset yes
pair_coeff      * * spin/exchange exchange 5.25 0.00819452220513194 0.0 ${d_shell} offset yes
pair_coeff      * * spin/exchange exchange 5.25 0.00819452220513194 0.0 5.132075 offset yes
pair_coeff      * * spin/dmi dmi ${rc_dmi} ${d_eV} 0.0 0.0 1.0
pair_coeff      * * spin/dmi dmi 5.25 ${d_eV} 0.0 0.0 1.0
pair_coeff      * * spin/dmi dmi 5.25 0.003 0.0 0.0 1.0
pair_coeff      * * spin/magelec magelec ${rc_exch} 0.0 1.0 1.0 1.0   # zero strength: segfault workaround only
pair_coeff      * * spin/magelec magelec 5.25 0.0 1.0 1.0 1.0   

neighbor        0.3 bin
neigh_modify    every 10 check yes delay 20

fix             1 all precession/spin zeeman 0.0 0.0 0.0 1.0
fix_modify      1 energy yes
fix             2 all langevin/spin ${runtemp} 0.05 ${runseed}
fix             2 all langevin/spin 200 0.05 ${runseed}
fix             2 all langevin/spin 200 0.05 21
fix             3 all nve/spin lattice frozen

timestep        0.0001

compute         out_mag all spin
compute         outsp all property/atom spx spy spz sp
thermo_style    custom step time temp pe etotal c_out_mag[4] c_out_mag[5]
thermo          200

dump            1 all custom 500 dump_mp754090_T${runtemp}_s${runseed}.lammpstrj type x y z c_outsp[1] c_outsp[2] c_outsp[3]
dump            1 all custom 500 dump_mp754090_T200_s${runseed}.lammpstrj type x y z c_outsp[1] c_outsp[2] c_outsp[3]
dump            1 all custom 500 dump_mp754090_T200_s21.lammpstrj type x y z c_outsp[1] c_outsp[2] c_outsp[3]

# Coarse first pass -- 20k steps @ dt=0.0001 ps = 2 ps, same length as pdfeir's first pass.
run             20000

CITE-CITE-CITE-CITE-CITE-CITE-CITE-CITE-CITE-CITE-CITE-CITE-CITE

Your simulation uses code contributions which should be cited:

- fix nve/spin command: https://doi.org/10.1016/j.jcp.2018.06.042

@article{tranchida2018massively,
title={Massively Parallel Symplectic Algorithm for Coupled Magnetic Spin    Dynamics and Molecular Dynamics},
author={Tranchida, J and Plimpton, S J and Thibaudeau, P and Thompson, A P},
journal={Journal of Computational Physics},
volume={372},
pages={406--425},
year={2018},
publisher={Elsevier}
doi={10.1016/j.jcp.2018.06.042}
}

CITE-CITE-CITE-CITE-CITE-CITE-CITE-CITE-CITE-CITE-CITE-CITE-CITE

Generated 0 of 0 mixed pair_coeff terms from geometric mixing rule
Neighbor list info ...
  update: every = 10 steps, delay = 20 steps, check = yes
  max neighbors/atom: 2000, page size: 100000
  master list distance cutoff = 5.55
  ghost atom cutoff = 5.55
  binsize = 2.775, bins = 66 44 13
  3 neighbor lists, perpetual/occasional/extra = 3 0 0
  (1) pair spin/exchange, perpetual
      attributes: full, newton on
      pair build: full/bin/atomonly
      stencil: full/bin/3d
      bin: standard
  (2) pair spin/dmi, perpetual, copy from (1)
      attributes: full, newton on
      pair build: copy
      stencil: none
      bin: none
  (3) pair spin/magelec, perpetual, copy from (1)
      attributes: full, newton on
      pair build: copy
      stencil: none
      bin: none
WARNING: Dump 1 includes no atom IDs and is not sorted by ID. This may complicate post-processing tasks or visualization (src/dump.cpp:220)
Per MPI rank memory allocation (min/avg/max) = 5.919 | 5.919 | 5.919 Mbytes
   Step          Time           Temp          PotEng         TotEng      c_out_mag[4]   c_out_mag[5] 
       396   0.0396         0              0.16923922     0.16923922     0.071743915    0.16923922   
       400   0.04           0              0.32676546     0.32676546     0.071746517    0.32676546   
       600   0.06           0              6.8402476      6.8402476      0.071498233    6.8402476    
       800   0.08           0              12.162928      12.162928      0.067299145    12.162928    
      1000   0.1            0              15.81891       15.81891       0.073396382    15.81891     
      1200   0.12           0              18.547796      18.547796      0.071017394    18.547796    
      1400   0.14           0              20.999554      20.999554      0.068920374    20.999554    
      1600   0.16           0              22.916153      22.916153      0.069392281    22.916153    
      1800   0.18           0              24.457794      24.457794      0.07071195     24.457794    
      2000   0.2            0              25.218784      25.218784      0.073138139    25.218784    
      2200   0.22           0              26.502129      26.502129      0.071214962    26.502129    
      2400   0.24           0              26.884527      26.884527      0.070818579    26.884527    
      2600   0.26           0              28.022979      28.022979      0.06439413     28.022979    
      2800   0.28           0              29.028323      29.028323      0.060522981    29.028323    
      3000   0.3            0              30.584677      30.584677      0.06277213     30.584677    
      3200   0.32           0              31.461149      31.461149      0.065271209    31.461149    
      3400   0.34           0              32.283964      32.283964      0.064850514    32.283964    
      3600   0.36           0              32.655343      32.655343      0.063292305    32.655343    
      3800   0.38           0              32.88414       32.88414       0.065504137    32.88414     
      4000   0.4            0              33.042846      33.042846      0.074362881    33.042846    
      4200   0.42           0              33.215085      33.215085      0.075201029    33.215085    
      4400   0.44           0              33.799242      33.799242      0.075701713    33.799242    
      4600   0.46           0              33.718317      33.718317      0.076356568    33.718317    
      4800   0.48           0              34.1994        34.1994        0.079518336    34.1994      
      5000   0.5            0              35.000868      35.000868      0.078932826    35.000868    
      5200   0.52           0              34.821634      34.821634      0.077142311    34.821634    
      5400   0.54           0              34.938111      34.938111      0.076036635    34.938111    
      5600   0.56           0              34.996064      34.996064      0.072892037    34.996064    
      5800   0.58           0              35.443204      35.443204      0.067660942    35.443204    
      6000   0.6            0              35.877319      35.877319      0.060884526    35.877319    
      6200   0.62           0              36.14762       36.14762       0.061174764    36.14762     
      6400   0.64           0              36.663729      36.663729      0.062797621    36.663729    
      6600   0.66           0              37.393583      37.393583      0.06071425     37.393583    
      6800   0.68           0              37.562063      37.562063      0.062839143    37.562063    
      7000   0.7            0              37.963108      37.963108      0.067698098    37.963108    
      7200   0.72           0              38.318371      38.318371      0.06583246     38.318371    
      7400   0.74           0              37.879461      37.879461      0.065330452    37.879461    
      7600   0.76           0              38.071386      38.071386      0.06715892     38.071386    
      7800   0.78           0              38.15555       38.15555       0.065767946    38.15555     
      8000   0.8            0              38.746314      38.746314      0.065489178    38.746314    
      8200   0.82           0              39.120725      39.120725      0.061248409    39.120725    
      8400   0.84           0              39.029827      39.029827      0.063951366    39.029827    
      8600   0.86           0              38.904289      38.904289      0.064478263    38.904289    
      8800   0.88           0              39.355206      39.355206      0.066045741    39.355206    
      9000   0.9            0              39.446117      39.446117      0.065426177    39.446117    
      9200   0.92           0              40.067611      40.067611      0.062959295    40.067611    
      9400   0.94           0              39.727115      39.727115      0.065356296    39.727115    
      9600   0.96           0              40.003197      40.003197      0.066300773    40.003197    
      9800   0.98           0              40.284827      40.284827      0.068009814    40.284827    
     10000   1              0              40.497532      40.497532      0.063689702    40.497532    
     10200   1.02           0              40.473871      40.473871      0.061741534    40.473871    
     10400   1.04           0              40.592427      40.592427      0.059953577    40.592427    
     10600   1.06           0              40.61341       40.61341       0.058384405    40.61341     
     10800   1.08           0              41.19449       41.19449       0.057394684    41.19449     
     11000   1.1            0              41.550011      41.550011      0.050984321    41.550011    
     11200   1.12           0              41.847705      41.847705      0.046209641    41.847705    
     11400   1.14           0              41.988858      41.988858      0.045642838    41.988858    
     11600   1.16           0              42.520187      42.520187      0.037984918    42.520187    
     11800   1.18           0              42.624057      42.624057      0.039686715    42.624057    
     12000   1.2            0              42.221938      42.221938      0.038030804    42.221938    
     12200   1.22           0              41.786335      41.786335      0.04052403     41.786335    
     12400   1.24           0              41.754684      41.754684      0.038093374    41.754684    
     12600   1.26           0              42.066229      42.066229      0.038959636    42.066229    
     12800   1.28           0              41.802441      41.802441      0.043640355    41.802441    
     13000   1.3            0              41.41585       41.41585       0.04104542     41.41585     
     13200   1.32           0              41.501218      41.501218      0.042376712    41.501218    
     13400   1.34           0              41.299452      41.299452      0.033781569    41.299452    
     13600   1.36           0              41.423788      41.423788      0.035584987    41.423788    
     13800   1.38           0              41.638028      41.638028      0.034842779    41.638028    
     14000   1.4            0              41.358448      41.358448      0.038647303    41.358448    
     14200   1.42           0              41.375193      41.375193      0.041619429    41.375193    
     14400   1.44           0              41.799374      41.799374      0.05074046     41.799374    
     14600   1.46           0              41.526964      41.526964      0.052295066    41.526964    
     14800   1.48           0              41.851402      41.851402      0.05381494     41.851402    
     15000   1.5            0              42.092803      42.092803      0.059783456    42.092803    
     15200   1.52           0              41.272477      41.272477      0.062722323    41.272477    
     15400   1.54           0              41.310996      41.310996      0.057783103    41.310996    
     15600   1.56           0              41.19995       41.19995       0.055503747    41.19995     
     15800   1.58           0              40.842035      40.842035      0.054577588    40.842035    
     16000   1.6            0              40.759799      40.759799      0.055143934    40.759799    
     16200   1.62           0              41.200667      41.200667      0.059628285    41.200667    
     16400   1.64           0              41.692267      41.692267      0.059562964    41.692267    
     16600   1.66           0              42.07156       42.07156       0.059471779    42.07156     
     16800   1.68           0              42.250667      42.250667      0.058898527    42.250667    
     17000   1.7            0              41.839848      41.839848      0.060593766    41.839848    
     17200   1.72           0              41.861872      41.861872      0.057848742    41.861872    
     17400   1.74           0              41.393566      41.393566      0.054713933    41.393566    
     17600   1.76           0              41.561747      41.561747      0.059826648    41.561747    
     17800   1.78           0              41.963349      41.963349      0.060283606    41.963349    
     18000   1.8            0              42.219124      42.219124      0.054103693    42.219124    
     18200   1.82           0              42.48851       42.48851       0.053892526    42.48851     
     18400   1.84           0              42.528682      42.528682      0.049168619    42.528682    
     18600   1.86           0              42.5109        42.5109        0.049066836    42.5109      
     18800   1.88           0              42.341486      42.341486      0.049455336    42.341486    
     19000   1.9            0              42.568736      42.568736      0.053468137    42.568736    
     19200   1.92           0              42.978847      42.978847      0.055838872    42.978847    
     19400   1.94           0              42.857415      42.857415      0.057911617    42.857415    
     19600   1.96           0              43.069187      43.069187      0.057289042    43.069187    
     19800   1.98           0              43.282002      43.282002      0.056787834    43.282002    
     20000   2              0              42.857145      42.857145      0.052133173    42.857145    
     20200   2.02           0              42.671779      42.671779      0.048289067    42.671779    
     20396   2.0396         0              42.868455      42.868455      0.050998617    42.868455    
Loop time of 78.21 on 1 procs for 20000 steps with 2048 atoms

Performance: 2.209 ns/day, 10.863 hours/ns, 255.722 timesteps/s, 523.718 katom-step/s
100.0% CPU use with 1 MPI tasks x 1 OpenMP threads

MPI task timing breakdown:
Section |  min time  |  avg time  |  max time  |%varavg| %total
---------------------------------------------------------------
Pair    | 20.232     | 20.232     | 20.232     |   0.0 | 25.87
Neigh   | 0          | 0          | 0          |   0.0 |  0.00
Comm    | 0.68803    | 0.68803    | 0.68803    |   0.0 |  0.88
Output  | 0.11686    | 0.11686    | 0.11686    |   0.0 |  0.15
Modify  | 57.081     | 57.081     | 57.081     |   0.0 | 72.98
Other   |            | 0.09182    |            |       |  0.12

Nlocal:           2048 ave        2048 max        2048 min
Histogram: 1 0 0 0 0 0 0 0 0 0
Nghost:           1732 ave        1732 max        1732 min
Histogram: 1 0 0 0 0 0 0 0 0 0
Neighs:              0 ave           0 max           0 min
Histogram: 1 0 0 0 0 0 0 0 0 0
FullNghs:        24576 ave       24576 max       24576 min
Histogram: 1 0 0 0 0 0 0 0 0 0

Total # of neighbors = 24576
Ave neighs/atom = 12
Neighbor list builds = 0
Dangerous builds = 0

print           "DYNAMICS_T${runtemp}_DONE"
DYNAMICS_T200_DONE
Total wall time: 0:01:18
