LAMMPS (10 Dec 2025 - Development - patch_10Dec2025-120-ga51f9ba0e7)
OMP_NUM_THREADS environment is not set. Defaulting to 1 thread.
  using 1 OpenMP thread(s) per MPI task
# Finite-T Langevin spin-dynamics stage for the Pd/Fe/Ir(111) effective model (see
# in.pdfeir_effective.lammps for the Hamiltonian, parameters, and their provenance).
# Run via run_scan.sh, one temperature per invocation: -var runtemp <K> -var runseed <int>
#
# Segfault root cause and fix (found by bisection, 2026-08-16):
#   `fix nve/spin` + a dynamics `run` was segfaulting on the real system on every LAMMPS
#   build tried, including a from-source rebuild with the SPIN package freshly enabled
#   (10 Dec 2025 dev snapshot). Bisected on a minimal reproducer down to: LAMMPS's
#   `pair_style hybrid/overlay` segfaults during force computation whenever it wraps
#   EXACTLY TWO SPIN-package pair substyles (confirmed for spin/exchange+spin/dmi and,
#   independently, spin/exchange+spin/magelec) -- reproduces regardless of langevin/spin,
#   fix declaration order, lattice geometry/boundary, or DMI direction, and is NOT specific
#   to this system: examples/SPIN/bfo (which combines exchange+magelec+dmi, THREE
#   substyles) ships with LAMMPS and runs fine on the exact same build. Adding a third,
#   physically-inert (zero-strength) spin/magelec substyle to pad hybrid/overlay to three
#   substyles avoids the crash entirely -- verified against this real system (600-atom
#   scaled check, 500-step Langevin run, smooth non-NaN energy relaxation) before adopting
#   it here. This is a LAMMPS bug (not a modeling error); the padding is a workaround,
#   not a physics change (magelec coefficient is exactly 0).

units           metal
atom_style      spin
dimension       3
boundary        p p f
atom_modify     map array

read_restart    restart.pdfeir_T0.equil
Reading restart file ...
  restart file = 10 Dec 2025, LAMMPS = 10 Dec 2025
  restoring atom style spin from restart
  orthogonal box = (0 0 -1.3575) to (407.25 235.1259 1.3575)
  1 by 1 by 1 MPI processor grid
  restoring pair style hybrid/overlay from restart
  15000 atoms
  read_restart CPU = 0.003 seconds

variable        rnn equal 2.715
variable        j_eff_eV equal 0.00368
variable        exch_a equal v_j_eff_eV*2.718281828/4.0
variable        rc_exch equal 1.2*${rnn}
variable        rc_exch equal 1.2*2.715
variable        d_eV equal 0.00139
variable        rc_dmi equal 1.2*${rnn}
variable        rc_dmi equal 1.2*2.715
variable        k_eV equal -0.0007

# --- workaround: pad hybrid/overlay to 3 spin substyles, see note above ---
pair_style      hybrid/overlay spin/exchange ${rc_exch} spin/dmi ${rc_dmi} spin/magelec ${rc_exch}
pair_style      hybrid/overlay spin/exchange 3.258 spin/dmi ${rc_dmi} spin/magelec ${rc_exch}
pair_style      hybrid/overlay spin/exchange 3.258 spin/dmi 3.258 spin/magelec ${rc_exch}
pair_style      hybrid/overlay spin/exchange 3.258 spin/dmi 3.258 spin/magelec 3.258
pair_coeff      * * spin/exchange exchange ${rc_exch} ${exch_a} 0.0 ${rnn} offset yes
pair_coeff      * * spin/exchange exchange 3.258 ${exch_a} 0.0 ${rnn} offset yes
pair_coeff      * * spin/exchange exchange 3.258 0.00250081928176 0.0 ${rnn} offset yes
pair_coeff      * * spin/exchange exchange 3.258 0.00250081928176 0.0 2.715 offset yes
pair_coeff      * * spin/dmi dmi ${rc_dmi} ${d_eV} 0.0 0.0 1.0
pair_coeff      * * spin/dmi dmi 3.258 ${d_eV} 0.0 0.0 1.0
pair_coeff      * * spin/dmi dmi 3.258 0.00139 0.0 0.0 1.0
pair_coeff      * * spin/magelec magelec ${rc_exch} 0.0 1.0 1.0 1.0   # zero strength: workaround only
pair_coeff      * * spin/magelec magelec 3.258 0.0 1.0 1.0 1.0   

neighbor        0.3 bin
neigh_modify    every 10 check yes delay 20

fix             1 all precession/spin zeeman 0.0 0.0 0.0 1.0 anisotropy ${k_eV} 0.0 0.0 1.0
fix             1 all precession/spin zeeman 0.0 0.0 0.0 1.0 anisotropy -0.0007 0.0 0.0 1.0
fix_modify      1 energy yes
fix             2 all langevin/spin ${runtemp} 0.05 ${runseed}
fix             2 all langevin/spin 226 0.05 ${runseed}
fix             2 all langevin/spin 226 0.05 21
fix             3 all nve/spin lattice frozen

timestep        0.0001

compute         out_mag all spin
compute         outsp all property/atom spx spy spz sp
thermo_style    custom step time temp pe etotal c_out_mag[4] c_out_mag[5]
thermo          200

dump            1 all custom 500 dump_pdfeir_T${runtemp}_s${runseed}.lammpstrj type x y z c_outsp[1] c_outsp[2] c_outsp[3]
dump            1 all custom 500 dump_pdfeir_T226_s${runseed}.lammpstrj type x y z c_outsp[1] c_outsp[2] c_outsp[3]
dump            1 all custom 500 dump_pdfeir_T226_s21.lammpstrj type x y z c_outsp[1] c_outsp[2] c_outsp[3]

# Equilibrate then production sample. 20k steps @ dt=0.0001 ps = 2 ps -- short first pass;
# extend once the T_c ~214K checkpoint from the paper needs finer sampling.
run             20000

CITE-CITE-CITE-CITE-CITE-CITE-CITE-CITE-CITE-CITE-CITE-CITE-CITE

Your simulation uses code contributions which should be cited:

- fix nve/spin command: https://doi.org/10.1016/j.jcp.2018.06.042

@article{tranchida2018massively,
title={Massively Parallel Symplectic Algorithm for Coupled Magnetic Spin    Dynamics and Molecular Dynamics},
author={Tranchida, J and Plimpton, S J and Thibaudeau, P and Thompson, A P},
journal={Journal of Computational Physics},
volume={372},
pages={406--425},
year={2018},
publisher={Elsevier}
doi={10.1016/j.jcp.2018.06.042}
}

CITE-CITE-CITE-CITE-CITE-CITE-CITE-CITE-CITE-CITE-CITE-CITE-CITE

Generated 0 of 0 mixed pair_coeff terms from geometric mixing rule
Neighbor list info ...
  update: every = 10 steps, delay = 20 steps, check = yes
  max neighbors/atom: 2000, page size: 100000
  master list distance cutoff = 3.558
  ghost atom cutoff = 3.558
  binsize = 1.779, bins = 229 133 2
  3 neighbor lists, perpetual/occasional/extra = 3 0 0
  (1) pair spin/exchange, perpetual
      attributes: full, newton on
      pair build: full/bin/atomonly
      stencil: full/bin/3d
      bin: standard
  (2) pair spin/dmi, perpetual, copy from (1)
      attributes: full, newton on
      pair build: copy
      stencil: none
      bin: none
  (3) pair spin/magelec, perpetual, copy from (1)
      attributes: full, newton on
      pair build: copy
      stencil: none
      bin: none
WARNING: Dump 1 includes no atom IDs and is not sorted by ID. This may complicate post-processing tasks or visualization (src/dump.cpp:220)
Per MPI rank memory allocation (min/avg/max) = 6.591 | 6.591 | 6.591 Mbytes
   Step          Time           Temp          PotEng         TotEng      c_out_mag[4]   c_out_mag[5] 
      2522   0.2522         0             -1.0275171     -1.0275171      0.030922721   -1.0275171    
      2600   0.26           0              6.5865126      6.5865126      0.030247984    6.5865126    
      2800   0.28           0              23.773908      23.773908      0.031238238    23.773908    
      3000   0.3            0              38.483161      38.483161      0.030992935    38.483161    
      3200   0.32           0              50.483352      50.483352      0.028943226    50.483352    
      3400   0.34           0              60.659213      60.659213      0.029848202    60.659213    
      3600   0.36           0              69.6397        69.6397        0.029691116    69.6397      
      3800   0.38           0              77.589225      77.589225      0.025216741    77.589225    
      4000   0.4            0              85.173998      85.173998      0.023934164    85.173998    
      4200   0.42           0              91.808937      91.808937      0.024529397    91.808937    
      4400   0.44           0              97.538041      97.538041      0.021696071    97.538041    
      4600   0.46           0              102.4646       102.4646       0.019647603    102.4646     
      4800   0.48           0              107.35479      107.35479      0.019848708    107.35479    
      5000   0.5            0              111.46665      111.46665      0.015496147    111.46665    
      5200   0.52           0              115.11224      115.11224      0.014433587    115.11224    
      5400   0.54           0              118.04432      118.04432      0.014601674    118.04432    
      5600   0.56           0              121.51201      121.51201      0.01398051     121.51201    
      5800   0.58           0              123.69561      123.69561      0.016180535    123.69561    
      6000   0.6            0              126.37606      126.37606      0.015576739    126.37606    
      6200   0.62           0              129.06676      129.06676      0.012449775    129.06676    
      6400   0.64           0              131.22921      131.22921      0.012351246    131.22921    
      6600   0.66           0              133.44761      133.44761      0.01125185     133.44761    
      6800   0.68           0              135.0945       135.0945       0.011779198    135.0945     
      7000   0.7            0              136.39489      136.39489      0.010411332    136.39489    
      7200   0.72           0              138.34245      138.34245      0.011707251    138.34245    
      7400   0.74           0              139.73552      139.73552      0.013099753    139.73552    
      7600   0.76           0              141.14802      141.14802      0.012081416    141.14802    
      7800   0.78           0              142.14056      142.14056      0.012628122    142.14056    
      8000   0.8            0              143.40287      143.40287      0.010679094    143.40287    
      8200   0.82           0              144.02684      144.02684      0.0071525728   144.02684    
      8400   0.84           0              144.77375      144.77375      0.0079242704   144.77375    
      8600   0.86           0              145.76378      145.76378      0.0057368757   145.76378    
      8800   0.88           0              146.48481      146.48481      0.0078753634   146.48481    
      9000   0.9            0              147.11645      147.11645      0.0074443708   147.11645    
      9200   0.92           0              148.06307      148.06307      0.0073688325   148.06307    
      9400   0.94           0              148.13101      148.13101      0.0076120562   148.13101    
      9600   0.96           0              148.96501      148.96501      0.0059191974   148.96501    
      9800   0.98           0              149.43184      149.43184      0.0062790125   149.43184    
     10000   1              0              150.50311      150.50311      0.0054434944   150.50311    
     10200   1.02           0              150.71356      150.71356      0.0065440158   150.71356    
     10400   1.04           0              151.286        151.286        0.0067634454   151.286      
     10600   1.06           0              151.7067       151.7067       0.0085491796   151.7067     
     10800   1.08           0              152.07957      152.07957      0.0076046705   152.07957    
     11000   1.1            0              152.50868      152.50868      0.0081980315   152.50868    
     11200   1.12           0              153.11464      153.11464      0.0083652844   153.11464    
     11400   1.14           0              153.63092      153.63092      0.007647449    153.63092    
     11600   1.16           0              154.03144      154.03144      0.0061781825   154.03144    
     11800   1.18           0              154.2494       154.2494       0.0050540791   154.2494     
     12000   1.2            0              154.43786      154.43786      0.0068771113   154.43786    
     12200   1.22           0              154.79495      154.79495      0.0067945636   154.79495    
     12400   1.24           0              155.081        155.081        0.0088861884   155.081      
     12600   1.26           0              155.17265      155.17265      0.0091924419   155.17265    
     12800   1.28           0              155.4676       155.4676       0.010528944    155.4676     
     13000   1.3            0              155.02054      155.02054      0.010921436    155.02054    
     13200   1.32           0              155.22957      155.22957      0.013189409    155.22957    
     13400   1.34           0              155.13589      155.13589      0.01181554     155.13589    
     13600   1.36           0              155.12136      155.12136      0.012997618    155.12136    
     13800   1.38           0              155.40958      155.40958      0.012993419    155.40958    
     14000   1.4            0              155.7734       155.7734       0.011699259    155.7734     
     14200   1.42           0              155.81867      155.81867      0.0087504844   155.81867    
     14400   1.44           0              155.95698      155.95698      0.010920669    155.95698    
     14600   1.46           0              155.79789      155.79789      0.012241213    155.79789    
     14800   1.48           0              155.84368      155.84368      0.012076557    155.84368    
     15000   1.5            0              155.81474      155.81474      0.011707753    155.81474    
     15200   1.52           0              155.663        155.663        0.009776531    155.663      
     15400   1.54           0              155.8722       155.8722       0.011206557    155.8722     
     15600   1.56           0              156.08021      156.08021      0.0098258814   156.08021    
     15800   1.58           0              156.19725      156.19725      0.010466253    156.19725    
     16000   1.6            0              155.97078      155.97078      0.0097309944   155.97078    
     16200   1.62           0              155.93631      155.93631      0.011465526    155.93631    
     16400   1.64           0              156.0046       156.0046       0.013284462    156.0046     
     16600   1.66           0              156.06658      156.06658      0.010076839    156.06658    
     16800   1.68           0              156.1673       156.1673       0.01065676     156.1673     
     17000   1.7            0              155.84922      155.84922      0.013000932    155.84922    
     17200   1.72           0              156.07916      156.07916      0.012058715    156.07916    
     17400   1.74           0              156.23792      156.23792      0.011049993    156.23792    
     17600   1.76           0              156.26075      156.26075      0.013186296    156.26075    
     17800   1.78           0              155.97089      155.97089      0.011582151    155.97089    
     18000   1.8            0              155.83433      155.83433      0.012208387    155.83433    
     18200   1.82           0              155.76238      155.76238      0.011323064    155.76238    
     18400   1.84           0              155.41384      155.41384      0.010196056    155.41384    
     18600   1.86           0              155.83123      155.83123      0.0095592381   155.83123    
     18800   1.88           0              156.3189       156.3189       0.0098591503   156.3189     
     19000   1.9            0              156.115        156.115        0.0098378411   156.115      
     19200   1.92           0              155.68225      155.68225      0.010779       155.68225    
     19400   1.94           0              155.59914      155.59914      0.010828762    155.59914    
     19600   1.96           0              155.48643      155.48643      0.0087157939   155.48643    
     19800   1.98           0              155.59588      155.59588      0.0071752374   155.59588    
     20000   2              0              155.74512      155.74512      0.0092274962   155.74512    
     20200   2.02           0              155.60431      155.60431      0.009015892    155.60431    
     20400   2.04           0              155.16443      155.16443      0.010394868    155.16443    
     20600   2.06           0              155.07851      155.07851      0.0096737408   155.07851    
     20800   2.08           0              155.44721      155.44721      0.011430181    155.44721    
     21000   2.1            0              155.51301      155.51301      0.012308593    155.51301    
     21200   2.12           0              155.20679      155.20679      0.013860739    155.20679    
     21400   2.14           0              155.46824      155.46824      0.011291187    155.46824    
     21600   2.16           0              155.27011      155.27011      0.011159868    155.27011    
     21800   2.18           0              155.21842      155.21842      0.010184503    155.21842    
     22000   2.2            0              154.87943      154.87943      0.0082400005   154.87943    
     22200   2.22           0              154.70075      154.70075      0.0080712382   154.70075    
     22400   2.24           0              154.71718      154.71718      0.01106077     154.71718    
     22522   2.2522         0              154.60308      154.60308      0.0094171978   154.60308    
Loop time of 531.432 on 1 procs for 20000 steps with 15000 atoms

Performance: 0.325 ns/day, 73.810 hours/ns, 37.634 timesteps/s, 564.512 katom-step/s
99.9% CPU use with 1 MPI tasks x 1 OpenMP threads

MPI task timing breakdown:
Section |  min time  |  avg time  |  max time  |%varavg| %total
---------------------------------------------------------------
Pair    | 136.11     | 136.11     | 136.11     |   0.0 | 25.61
Neigh   | 0          | 0          | 0          |   0.0 |  0.00
Comm    | 1.3777     | 1.3777     | 1.3777     |   0.0 |  0.26
Output  | 0.87939    | 0.87939    | 0.87939    |   0.0 |  0.17
Modify  | 388.97     | 388.97     | 388.97     |   0.0 | 73.19
Other   |            | 4.097      |            |       |  0.77

Nlocal:          15000 ave       15000 max       15000 min
Histogram: 1 0 0 0 0 0 0 0 0 0
Nghost:            707 ave         707 max         707 min
Histogram: 1 0 0 0 0 0 0 0 0 0
Neighs:              0 ave           0 max           0 min
Histogram: 1 0 0 0 0 0 0 0 0 0
FullNghs:        90000 ave       90000 max       90000 min
Histogram: 1 0 0 0 0 0 0 0 0 0

Total # of neighbors = 90000
Ave neighs/atom = 6
Neighbor list builds = 0
Dangerous builds = 0

print           "DYNAMICS_T${runtemp}_DONE"
DYNAMICS_T226_DONE
Total wall time: 0:08:51
