LAMMPS (10 Dec 2025 - Development - patch_10Dec2025-120-ga51f9ba0e7)
OMP_NUM_THREADS environment is not set. Defaulting to 1 thread.
  using 1 OpenMP thread(s) per MPI task
# Finite-T Langevin spin-dynamics stage for the Pd/Fe/Ir(111) effective model (see
# in.pdfeir_effective.lammps for the Hamiltonian, parameters, and their provenance).
# Run via run_scan.sh, one temperature per invocation: -var runtemp <K> -var runseed <int>
#
# Segfault root cause and fix (found by bisection, 2026-08-16):
#   `fix nve/spin` + a dynamics `run` was segfaulting on the real system on every LAMMPS
#   build tried, including a from-source rebuild with the SPIN package freshly enabled
#   (10 Dec 2025 dev snapshot). Bisected on a minimal reproducer down to: LAMMPS's
#   `pair_style hybrid/overlay` segfaults during force computation whenever it wraps
#   EXACTLY TWO SPIN-package pair substyles (confirmed for spin/exchange+spin/dmi and,
#   independently, spin/exchange+spin/magelec) -- reproduces regardless of langevin/spin,
#   fix declaration order, lattice geometry/boundary, or DMI direction, and is NOT specific
#   to this system: examples/SPIN/bfo (which combines exchange+magelec+dmi, THREE
#   substyles) ships with LAMMPS and runs fine on the exact same build. Adding a third,
#   physically-inert (zero-strength) spin/magelec substyle to pad hybrid/overlay to three
#   substyles avoids the crash entirely -- verified against this real system (600-atom
#   scaled check, 500-step Langevin run, smooth non-NaN energy relaxation) before adopting
#   it here. This is a LAMMPS bug (not a modeling error); the padding is a workaround,
#   not a physics change (magelec coefficient is exactly 0).

units           metal
atom_style      spin
dimension       3
boundary        p p f
atom_modify     map array

read_restart    restart.pdfeir_T0.equil
Reading restart file ...
  restart file = 10 Dec 2025, LAMMPS = 10 Dec 2025
  restoring atom style spin from restart
  orthogonal box = (0 0 -1.3575) to (407.25 235.1259 1.3575)
  1 by 1 by 1 MPI processor grid
  restoring pair style hybrid/overlay from restart
  15000 atoms
  read_restart CPU = 0.003 seconds

variable        rnn equal 2.715
variable        j_eff_eV equal 0.00368
variable        exch_a equal v_j_eff_eV*2.718281828/4.0
variable        rc_exch equal 1.2*${rnn}
variable        rc_exch equal 1.2*2.715
variable        d_eV equal 0.00139
variable        rc_dmi equal 1.2*${rnn}
variable        rc_dmi equal 1.2*2.715
variable        k_eV equal -0.0007

# --- workaround: pad hybrid/overlay to 3 spin substyles, see note above ---
pair_style      hybrid/overlay spin/exchange ${rc_exch} spin/dmi ${rc_dmi} spin/magelec ${rc_exch}
pair_style      hybrid/overlay spin/exchange 3.258 spin/dmi ${rc_dmi} spin/magelec ${rc_exch}
pair_style      hybrid/overlay spin/exchange 3.258 spin/dmi 3.258 spin/magelec ${rc_exch}
pair_style      hybrid/overlay spin/exchange 3.258 spin/dmi 3.258 spin/magelec 3.258
pair_coeff      * * spin/exchange exchange ${rc_exch} ${exch_a} 0.0 ${rnn} offset yes
pair_coeff      * * spin/exchange exchange 3.258 ${exch_a} 0.0 ${rnn} offset yes
pair_coeff      * * spin/exchange exchange 3.258 0.00250081928176 0.0 ${rnn} offset yes
pair_coeff      * * spin/exchange exchange 3.258 0.00250081928176 0.0 2.715 offset yes
pair_coeff      * * spin/dmi dmi ${rc_dmi} ${d_eV} 0.0 0.0 1.0
pair_coeff      * * spin/dmi dmi 3.258 ${d_eV} 0.0 0.0 1.0
pair_coeff      * * spin/dmi dmi 3.258 0.00139 0.0 0.0 1.0
pair_coeff      * * spin/magelec magelec ${rc_exch} 0.0 1.0 1.0 1.0   # zero strength: workaround only
pair_coeff      * * spin/magelec magelec 3.258 0.0 1.0 1.0 1.0   

neighbor        0.3 bin
neigh_modify    every 10 check yes delay 20

fix             1 all precession/spin zeeman 0.0 0.0 0.0 1.0 anisotropy ${k_eV} 0.0 0.0 1.0
fix             1 all precession/spin zeeman 0.0 0.0 0.0 1.0 anisotropy -0.0007 0.0 0.0 1.0
fix_modify      1 energy yes
fix             2 all langevin/spin ${runtemp} 0.05 ${runseed}
fix             2 all langevin/spin 245 0.05 ${runseed}
fix             2 all langevin/spin 245 0.05 21
fix             3 all nve/spin lattice frozen

timestep        0.0001

compute         out_mag all spin
compute         outsp all property/atom spx spy spz sp
thermo_style    custom step time temp pe etotal c_out_mag[4] c_out_mag[5]
thermo          200

dump            1 all custom 500 dump_pdfeir_T${runtemp}_s${runseed}.lammpstrj type x y z c_outsp[1] c_outsp[2] c_outsp[3]
dump            1 all custom 500 dump_pdfeir_T245_s${runseed}.lammpstrj type x y z c_outsp[1] c_outsp[2] c_outsp[3]
dump            1 all custom 500 dump_pdfeir_T245_s21.lammpstrj type x y z c_outsp[1] c_outsp[2] c_outsp[3]

# Equilibrate then production sample. 20k steps @ dt=0.0001 ps = 2 ps -- short first pass;
# extend once the T_c ~214K checkpoint from the paper needs finer sampling.
run             20000

CITE-CITE-CITE-CITE-CITE-CITE-CITE-CITE-CITE-CITE-CITE-CITE-CITE

Your simulation uses code contributions which should be cited:

- fix nve/spin command: https://doi.org/10.1016/j.jcp.2018.06.042

@article{tranchida2018massively,
title={Massively Parallel Symplectic Algorithm for Coupled Magnetic Spin    Dynamics and Molecular Dynamics},
author={Tranchida, J and Plimpton, S J and Thibaudeau, P and Thompson, A P},
journal={Journal of Computational Physics},
volume={372},
pages={406--425},
year={2018},
publisher={Elsevier}
doi={10.1016/j.jcp.2018.06.042}
}

CITE-CITE-CITE-CITE-CITE-CITE-CITE-CITE-CITE-CITE-CITE-CITE-CITE

Generated 0 of 0 mixed pair_coeff terms from geometric mixing rule
Neighbor list info ...
  update: every = 10 steps, delay = 20 steps, check = yes
  max neighbors/atom: 2000, page size: 100000
  master list distance cutoff = 3.558
  ghost atom cutoff = 3.558
  binsize = 1.779, bins = 229 133 2
  3 neighbor lists, perpetual/occasional/extra = 3 0 0
  (1) pair spin/exchange, perpetual
      attributes: full, newton on
      pair build: full/bin/atomonly
      stencil: full/bin/3d
      bin: standard
  (2) pair spin/dmi, perpetual, copy from (1)
      attributes: full, newton on
      pair build: copy
      stencil: none
      bin: none
  (3) pair spin/magelec, perpetual, copy from (1)
      attributes: full, newton on
      pair build: copy
      stencil: none
      bin: none
WARNING: Dump 1 includes no atom IDs and is not sorted by ID. This may complicate post-processing tasks or visualization (src/dump.cpp:220)
Per MPI rank memory allocation (min/avg/max) = 6.591 | 6.591 | 6.591 Mbytes
   Step          Time           Temp          PotEng         TotEng      c_out_mag[4]   c_out_mag[5] 
      2522   0.2522         0             -1.0275171     -1.0275171      0.030922721   -1.0275171    
      2600   0.26           0              7.2107351      7.2107351      0.030196096    7.2107351    
      2800   0.28           0              25.693607      25.693607      0.031203169    25.693607    
      3000   0.3            0              41.385112      41.385112      0.030842565    41.385112    
      3200   0.32           0              54.078506      54.078506      0.028661486    54.078506    
      3400   0.34           0              64.772243      64.772243      0.029609646    64.772243    
      3600   0.36           0              74.170742      74.170742      0.029460754    74.170742    
      3800   0.38           0              82.454196      82.454196      0.024843692    82.454196    
      4000   0.4            0              90.298912      90.298912      0.023571197    90.298912    
      4200   0.42           0              97.06321       97.06321       0.024103632    97.06321     
      4400   0.44           0              102.9177       102.9177       0.021261293    102.9177     
      4600   0.46           0              107.90416      107.90416      0.019056417    107.90416    
      4800   0.48           0              112.81578      112.81578      0.019117989    112.81578    
      5000   0.5            0              116.92697      116.92697      0.014368116    116.92697    
      5200   0.52           0              120.47682      120.47682      0.013189669    120.47682    
      5400   0.54           0              123.39697      123.39697      0.013647641    123.39697    
      5600   0.56           0              126.82224      126.82224      0.013245319    126.82224    
      5800   0.58           0              128.88695      128.88695      0.01538895     128.88695    
      6000   0.6            0              131.45805      131.45805      0.014959253    131.45805    
      6200   0.62           0              134.0652       134.0652       0.011610279    134.0652     
      6400   0.64           0              136.08099      136.08099      0.012239391    136.08099    
      6600   0.66           0              138.16425      138.16425      0.011059392    138.16425    
      6800   0.68           0              139.6633       139.6633       0.011786339    139.6633     
      7000   0.7            0              140.86093      140.86093      0.010895499    140.86093    
      7200   0.72           0              142.61609      142.61609      0.011996775    142.61609    
      7400   0.74           0              144.02938      144.02938      0.013683934    144.02938    
      7600   0.76           0              145.27892      145.27892      0.012111727    145.27892    
      7800   0.78           0              146.36278      146.36278      0.012873535    146.36278    
      8000   0.8            0              147.55193      147.55193      0.01001364     147.55193    
      8200   0.82           0              148.08028      148.08028      0.0071194334   148.08028    
      8400   0.84           0              148.55616      148.55616      0.0065863698   148.55616    
      8600   0.86           0              149.33979      149.33979      0.0055942575   149.33979    
      8800   0.88           0              149.82015      149.82015      0.0070371952   149.82015    
      9000   0.9            0              150.43728      150.43728      0.0072508331   150.43728    
      9200   0.92           0              151.12394      151.12394      0.009019615    151.12394    
      9400   0.94           0              151.66562      151.66562      0.0092810794   151.66562    
      9600   0.96           0              152.1663       152.1663       0.0065322445   152.1663     
      9800   0.98           0              152.41261      152.41261      0.0074744263   152.41261    
     10000   1              0              153.21697      153.21697      0.0074280235   153.21697    
     10200   1.02           0              152.98834      152.98834      0.0073256671   152.98834    
     10400   1.04           0              153.15083      153.15083      0.0088594578   153.15083    
     10600   1.06           0              153.44994      153.44994      0.009056631    153.44994    
     10800   1.08           0              153.95288      153.95288      0.0057511557   153.95288    
     11000   1.1            0              154.10442      154.10442      0.003995199    154.10442    
     11200   1.12           0              154.3228       154.3228       0.00652508     154.3228     
     11400   1.14           0              154.50872      154.50872      0.0055914868   154.50872    
     11600   1.16           0              154.85952      154.85952      0.0079950867   154.85952    
     11800   1.18           0              155.05263      155.05263      0.0088189894   155.05263    
     12000   1.2            0              155.42366      155.42366      0.0073235613   155.42366    
     12200   1.22           0              155.92858      155.92858      0.0080151655   155.92858    
     12400   1.24           0              156.11389      156.11389      0.0093697119   156.11389    
     12600   1.26           0              156.08503      156.08503      0.0078500908   156.08503    
     12800   1.28           0              156.01388      156.01388      0.010012653    156.01388    
     13000   1.3            0              156.19871      156.19871      0.005043216    156.19871    
     13200   1.32           0              156.55863      156.55863      0.0066560958   156.55863    
     13400   1.34           0              156.35579      156.35579      0.0054246289   156.35579    
     13600   1.36           0              156.3999       156.3999       0.0055948829   156.3999     
     13800   1.38           0              156.52877      156.52877      0.0062731975   156.52877    
     14000   1.4            0              156.54885      156.54885      0.0050758682   156.54885    
     14200   1.42           0              156.32211      156.32211      0.0052710344   156.32211    
     14400   1.44           0              156.52395      156.52395      0.0048898282   156.52395    
     14600   1.46           0              156.69746      156.69746      0.0081680608   156.69746    
     14800   1.48           0              156.52148      156.52148      0.0084211869   156.52148    
     15000   1.5            0              156.70112      156.70112      0.0093728321   156.70112    
     15200   1.52           0              156.65856      156.65856      0.012990724    156.65856    
     15400   1.54           0              157.16815      157.16815      0.01395925     157.16815    
     15600   1.56           0              157.47302      157.47302      0.015027395    157.47302    
     15800   1.58           0              157.7634       157.7634       0.014977048    157.7634     
     16000   1.6            0              157.64997      157.64997      0.014396835    157.64997    
     16200   1.62           0              157.5283       157.5283       0.0155098      157.5283     
     16400   1.64           0              157.13784      157.13784      0.014610796    157.13784    
     16600   1.66           0              157.50358      157.50358      0.01274133     157.50358    
     16800   1.68           0              156.92409      156.92409      0.011466013    156.92409    
     17000   1.7            0              156.97698      156.97698      0.013804777    156.97698    
     17200   1.72           0              157.44526      157.44526      0.010533071    157.44526    
     17400   1.74           0              157.61833      157.61833      0.0090377008   157.61833    
     17600   1.76           0              157.77306      157.77306      0.0068339334   157.77306    
     17800   1.78           0              158.03164      158.03164      0.0049627886   158.03164    
     18000   1.8            0              157.76587      157.76587      0.0072438928   157.76587    
     18200   1.82           0              157.74626      157.74626      0.0064650519   157.74626    
     18400   1.84           0              157.29355      157.29355      0.0051745796   157.29355    
     18600   1.86           0              157.31204      157.31204      0.0028106374   157.31204    
     18800   1.88           0              157.8619       157.8619       0.0012649243   157.8619     
     19000   1.9            0              157.62332      157.62332      0.0038496164   157.62332    
     19200   1.92           0              157.48567      157.48567      0.0039462653   157.48567    
     19400   1.94           0              157.62756      157.62756      0.0028282088   157.62756    
     19600   1.96           0              157.5484       157.5484       0.0043503617   157.5484     
     19800   1.98           0              157.57767      157.57767      0.0058219671   157.57767    
     20000   2              0              157.16594      157.16594      0.0075225849   157.16594    
     20200   2.02           0              156.96454      156.96454      0.0088548916   156.96454    
     20400   2.04           0              156.79954      156.79954      0.0077804914   156.79954    
     20600   2.06           0              156.97001      156.97001      0.0085652548   156.97001    
     20800   2.08           0              156.93446      156.93446      0.0083826825   156.93446    
     21000   2.1            0              157.19297      157.19297      0.0066679828   157.19297    
     21200   2.12           0              157.37836      157.37836      0.0085881455   157.37836    
     21400   2.14           0              157.18899      157.18899      0.011357516    157.18899    
     21600   2.16           0              156.94199      156.94199      0.010412737    156.94199    
     21800   2.18           0              157.02654      157.02654      0.008468043    157.02654    
     22000   2.2            0              157.1258       157.1258       0.0059623483   157.1258     
     22200   2.22           0              156.91139      156.91139      0.0040966425   156.91139    
     22400   2.24           0              157.25148      157.25148      0.0051985543   157.25148    
     22522   2.2522         0              156.93402      156.93402      0.005140318    156.93402    
Loop time of 531.61 on 1 procs for 20000 steps with 15000 atoms

Performance: 0.325 ns/day, 73.835 hours/ns, 37.622 timesteps/s, 564.323 katom-step/s
99.9% CPU use with 1 MPI tasks x 1 OpenMP threads

MPI task timing breakdown:
Section |  min time  |  avg time  |  max time  |%varavg| %total
---------------------------------------------------------------
Pair    | 135.77     | 135.77     | 135.77     |   0.0 | 25.54
Neigh   | 0          | 0          | 0          |   0.0 |  0.00
Comm    | 1.3522     | 1.3522     | 1.3522     |   0.0 |  0.25
Output  | 0.8975     | 0.8975     | 0.8975     |   0.0 |  0.17
Modify  | 389.69     | 389.69     | 389.69     |   0.0 | 73.30
Other   |            | 3.902      |            |       |  0.73

Nlocal:          15000 ave       15000 max       15000 min
Histogram: 1 0 0 0 0 0 0 0 0 0
Nghost:            707 ave         707 max         707 min
Histogram: 1 0 0 0 0 0 0 0 0 0
Neighs:              0 ave           0 max           0 min
Histogram: 1 0 0 0 0 0 0 0 0 0
FullNghs:        90000 ave       90000 max       90000 min
Histogram: 1 0 0 0 0 0 0 0 0 0

Total # of neighbors = 90000
Ave neighs/atom = 6
Neighbor list builds = 0
Dangerous builds = 0

print           "DYNAMICS_T${runtemp}_DONE"
DYNAMICS_T245_DONE
Total wall time: 0:08:51
