LAMMPS (10 Dec 2025 - Development - patch_10Dec2025-120-ga51f9ba0e7)
OMP_NUM_THREADS environment is not set. Defaulting to 1 thread.
  using 1 OpenMP thread(s) per MPI task
# Finite-T Langevin spin-dynamics stage for the Pd/Fe/Ir(111) effective model (see
# in.pdfeir_effective.lammps for the Hamiltonian, parameters, and their provenance).
# Run via run_scan.sh, one temperature per invocation: -var runtemp <K> -var runseed <int>
#
# Segfault root cause and fix (found by bisection, 2026-08-16):
#   `fix nve/spin` + a dynamics `run` was segfaulting on the real system on every LAMMPS
#   build tried, including a from-source rebuild with the SPIN package freshly enabled
#   (10 Dec 2025 dev snapshot). Bisected on a minimal reproducer down to: LAMMPS's
#   `pair_style hybrid/overlay` segfaults during force computation whenever it wraps
#   EXACTLY TWO SPIN-package pair substyles (confirmed for spin/exchange+spin/dmi and,
#   independently, spin/exchange+spin/magelec) -- reproduces regardless of langevin/spin,
#   fix declaration order, lattice geometry/boundary, or DMI direction, and is NOT specific
#   to this system: examples/SPIN/bfo (which combines exchange+magelec+dmi, THREE
#   substyles) ships with LAMMPS and runs fine on the exact same build. Adding a third,
#   physically-inert (zero-strength) spin/magelec substyle to pad hybrid/overlay to three
#   substyles avoids the crash entirely -- verified against this real system (600-atom
#   scaled check, 500-step Langevin run, smooth non-NaN energy relaxation) before adopting
#   it here. This is a LAMMPS bug (not a modeling error); the padding is a workaround,
#   not a physics change (magelec coefficient is exactly 0).

units           metal
atom_style      spin
dimension       3
boundary        p p f
atom_modify     map array

read_restart    restart.pdfeir_T0.equil
Reading restart file ...
  restart file = 10 Dec 2025, LAMMPS = 10 Dec 2025
  restoring atom style spin from restart
  orthogonal box = (0 0 -1.3575) to (407.25 235.1259 1.3575)
  1 by 1 by 1 MPI processor grid
  restoring pair style hybrid/overlay from restart
  15000 atoms
  read_restart CPU = 0.003 seconds

variable        rnn equal 2.715
variable        j_eff_eV equal 0.00368
variable        exch_a equal v_j_eff_eV*2.718281828/4.0
variable        rc_exch equal 1.2*${rnn}
variable        rc_exch equal 1.2*2.715
variable        d_eV equal 0.00139
variable        rc_dmi equal 1.2*${rnn}
variable        rc_dmi equal 1.2*2.715
variable        k_eV equal -0.0007

# --- workaround: pad hybrid/overlay to 3 spin substyles, see note above ---
pair_style      hybrid/overlay spin/exchange ${rc_exch} spin/dmi ${rc_dmi} spin/magelec ${rc_exch}
pair_style      hybrid/overlay spin/exchange 3.258 spin/dmi ${rc_dmi} spin/magelec ${rc_exch}
pair_style      hybrid/overlay spin/exchange 3.258 spin/dmi 3.258 spin/magelec ${rc_exch}
pair_style      hybrid/overlay spin/exchange 3.258 spin/dmi 3.258 spin/magelec 3.258
pair_coeff      * * spin/exchange exchange ${rc_exch} ${exch_a} 0.0 ${rnn} offset yes
pair_coeff      * * spin/exchange exchange 3.258 ${exch_a} 0.0 ${rnn} offset yes
pair_coeff      * * spin/exchange exchange 3.258 0.00250081928176 0.0 ${rnn} offset yes
pair_coeff      * * spin/exchange exchange 3.258 0.00250081928176 0.0 2.715 offset yes
pair_coeff      * * spin/dmi dmi ${rc_dmi} ${d_eV} 0.0 0.0 1.0
pair_coeff      * * spin/dmi dmi 3.258 ${d_eV} 0.0 0.0 1.0
pair_coeff      * * spin/dmi dmi 3.258 0.00139 0.0 0.0 1.0
pair_coeff      * * spin/magelec magelec ${rc_exch} 0.0 1.0 1.0 1.0   # zero strength: workaround only
pair_coeff      * * spin/magelec magelec 3.258 0.0 1.0 1.0 1.0   

neighbor        0.3 bin
neigh_modify    every 10 check yes delay 20

fix             1 all precession/spin zeeman 0.0 0.0 0.0 1.0 anisotropy ${k_eV} 0.0 0.0 1.0
fix             1 all precession/spin zeeman 0.0 0.0 0.0 1.0 anisotropy -0.0007 0.0 0.0 1.0
fix_modify      1 energy yes
fix             2 all langevin/spin ${runtemp} 0.05 ${runseed}
fix             2 all langevin/spin 222 0.05 ${runseed}
fix             2 all langevin/spin 222 0.05 42
fix             3 all nve/spin lattice frozen

timestep        0.0001

compute         out_mag all spin
compute         outsp all property/atom spx spy spz sp
thermo_style    custom step time temp pe etotal c_out_mag[4] c_out_mag[5]
thermo          200

dump            1 all custom 500 dump_pdfeir_T${runtemp}_s${runseed}.lammpstrj type x y z c_outsp[1] c_outsp[2] c_outsp[3]
dump            1 all custom 500 dump_pdfeir_T222_s${runseed}.lammpstrj type x y z c_outsp[1] c_outsp[2] c_outsp[3]
dump            1 all custom 500 dump_pdfeir_T222_s42.lammpstrj type x y z c_outsp[1] c_outsp[2] c_outsp[3]

# Equilibrate then production sample. 20k steps @ dt=0.0001 ps = 2 ps -- short first pass;
# extend once the T_c ~214K checkpoint from the paper needs finer sampling.
run             20000

CITE-CITE-CITE-CITE-CITE-CITE-CITE-CITE-CITE-CITE-CITE-CITE-CITE

Your simulation uses code contributions which should be cited:

- fix nve/spin command: https://doi.org/10.1016/j.jcp.2018.06.042

@article{tranchida2018massively,
title={Massively Parallel Symplectic Algorithm for Coupled Magnetic Spin    Dynamics and Molecular Dynamics},
author={Tranchida, J and Plimpton, S J and Thibaudeau, P and Thompson, A P},
journal={Journal of Computational Physics},
volume={372},
pages={406--425},
year={2018},
publisher={Elsevier}
doi={10.1016/j.jcp.2018.06.042}
}

CITE-CITE-CITE-CITE-CITE-CITE-CITE-CITE-CITE-CITE-CITE-CITE-CITE

Generated 0 of 0 mixed pair_coeff terms from geometric mixing rule
Neighbor list info ...
  update: every = 10 steps, delay = 20 steps, check = yes
  max neighbors/atom: 2000, page size: 100000
  master list distance cutoff = 3.558
  ghost atom cutoff = 3.558
  binsize = 1.779, bins = 229 133 2
  3 neighbor lists, perpetual/occasional/extra = 3 0 0
  (1) pair spin/exchange, perpetual
      attributes: full, newton on
      pair build: full/bin/atomonly
      stencil: full/bin/3d
      bin: standard
  (2) pair spin/dmi, perpetual, copy from (1)
      attributes: full, newton on
      pair build: copy
      stencil: none
      bin: none
  (3) pair spin/magelec, perpetual, copy from (1)
      attributes: full, newton on
      pair build: copy
      stencil: none
      bin: none
WARNING: Dump 1 includes no atom IDs and is not sorted by ID. This may complicate post-processing tasks or visualization (src/dump.cpp:220)
Per MPI rank memory allocation (min/avg/max) = 6.591 | 6.591 | 6.591 Mbytes
   Step          Time           Temp          PotEng         TotEng      c_out_mag[4]   c_out_mag[5] 
      2522   0.2522         0             -1.0275171     -1.0275171      0.030922721   -1.0275171    
      2600   0.26           0              6.315687       6.315687       0.030446856    6.315687     
      2800   0.28           0              23.04861       23.04861       0.028478819    23.04861     
      3000   0.3            0              37.054056      37.054056      0.027871603    37.054056    
      3200   0.32           0              48.873309      48.873309      0.025708266    48.873309    
      3400   0.34           0              59.092212      59.092212      0.02493428     59.092212    
      3600   0.36           0              68.096526      68.096526      0.024546888    68.096526    
      3800   0.38           0              76.268114      76.268114      0.025240781    76.268114    
      4000   0.4            0              83.430832      83.430832      0.024902101    83.430832    
      4200   0.42           0              90.897001      90.897001      0.025271401    90.897001    
      4400   0.44           0              95.945529      95.945529      0.023816235    95.945529    
      4600   0.46           0              101.05666      101.05666      0.020233437    101.05666    
      4800   0.48           0              106.12148      106.12148      0.020892488    106.12148    
      5000   0.5            0              110.27436      110.27436      0.019150354    110.27436    
      5200   0.52           0              114.17927      114.17927      0.019698585    114.17927    
      5400   0.54           0              117.59305      117.59305      0.01845983     117.59305    
      5600   0.56           0              121.13827      121.13827      0.019518985    121.13827    
      5800   0.58           0              123.88544      123.88544      0.017487359    123.88544    
      6000   0.6            0              125.91072      125.91072      0.016582841    125.91072    
      6200   0.62           0              128.086        128.086        0.016574656    128.086      
      6400   0.64           0              130.31538      130.31538      0.016038752    130.31538    
      6600   0.66           0              132.48581      132.48581      0.016664691    132.48581    
      6800   0.68           0              134.22312      134.22312      0.017429533    134.22312    
      7000   0.7            0              136.27503      136.27503      0.015298267    136.27503    
      7200   0.72           0              137.87545      137.87545      0.016355404    137.87545    
      7400   0.74           0              139.37227      139.37227      0.01405417     139.37227    
      7600   0.76           0              141.09971      141.09971      0.01206056     141.09971    
      7800   0.78           0              142.05203      142.05203      0.011639487    142.05203    
      8000   0.8            0              143.03029      143.03029      0.011231632    143.03029    
      8200   0.82           0              143.75475      143.75475      0.0088239575   143.75475    
      8400   0.84           0              144.63023      144.63023      0.0080769287   144.63023    
      8600   0.86           0              145.52092      145.52092      0.0067163285   145.52092    
      8800   0.88           0              146.09379      146.09379      0.0088586718   146.09379    
      9000   0.9            0              146.46789      146.46789      0.0091143968   146.46789    
      9200   0.92           0              147.19161      147.19161      0.0087633983   147.19161    
      9400   0.94           0              147.48166      147.48166      0.0075269871   147.48166    
      9600   0.96           0              148.51311      148.51311      0.0065883227   148.51311    
      9800   0.98           0              149.30545      149.30545      0.0075697648   149.30545    
     10000   1              0              150.03818      150.03818      0.0089287625   150.03818    
     10200   1.02           0              150.52286      150.52286      0.0070863011   150.52286    
     10400   1.04           0              150.92862      150.92862      0.0083259368   150.92862    
     10600   1.06           0              151.05932      151.05932      0.0093805922   151.05932    
     10800   1.08           0              151.58963      151.58963      0.011650372    151.58963    
     11000   1.1            0              152.34062      152.34062      0.009880703    152.34062    
     11200   1.12           0              152.79951      152.79951      0.010025793    152.79951    
     11400   1.14           0              152.54439      152.54439      0.0079096036   152.54439    
     11600   1.16           0              152.44473      152.44473      0.009672003    152.44473    
     11800   1.18           0              152.60935      152.60935      0.0056887129   152.60935    
     12000   1.2            0              152.20364      152.20364      0.0086341671   152.20364    
     12200   1.22           0              152.3487       152.3487       0.010245828    152.3487     
     12400   1.24           0              152.90406      152.90406      0.0092851199   152.90406    
     12600   1.26           0              153.16464      153.16464      0.010279565    153.16464    
     12800   1.28           0              153.17186      153.17186      0.0090762986   153.17186    
     13000   1.3            0              153.49947      153.49947      0.0049755288   153.49947    
     13200   1.32           0              153.4298       153.4298       0.0038163163   153.4298     
     13400   1.34           0              153.57544      153.57544      0.0066002583   153.57544    
     13600   1.36           0              153.82743      153.82743      0.0061248518   153.82743    
     13800   1.38           0              154.09607      154.09607      0.0045196558   154.09607    
     14000   1.4            0              154.50096      154.50096      0.0055145657   154.50096    
     14200   1.42           0              154.63422      154.63422      0.0072398351   154.63422    
     14400   1.44           0              154.33787      154.33787      0.0076149366   154.33787    
     14600   1.46           0              154.52138      154.52138      0.0073373905   154.52138    
     14800   1.48           0              154.75108      154.75108      0.0077960948   154.75108    
     15000   1.5            0              154.88162      154.88162      0.0085972632   154.88162    
     15200   1.52           0              155.16218      155.16218      0.006949975    155.16218    
     15400   1.54           0              155.05808      155.05808      0.0052846804   155.05808    
     15600   1.56           0              154.99323      154.99323      0.0064645559   154.99323    
     15800   1.58           0              155.00013      155.00013      0.0061176302   155.00013    
     16000   1.6            0              155.29001      155.29001      0.0050898185   155.29001    
     16200   1.62           0              155.12218      155.12218      0.0055767086   155.12218    
     16400   1.64           0              155.35185      155.35185      0.0067529744   155.35185    
     16600   1.66           0              155.33929      155.33929      0.0058062269   155.33929    
     16800   1.68           0              155.01076      155.01076      0.0077124284   155.01076    
     17000   1.7            0              155.36216      155.36216      0.0091985071   155.36216    
     17200   1.72           0              155.39775      155.39775      0.0094655641   155.39775    
     17400   1.74           0              155.40986      155.40986      0.011085317    155.40986    
     17600   1.76           0              155.8472       155.8472       0.0097899956   155.8472     
     17800   1.78           0              155.71176      155.71176      0.0091662822   155.71176    
     18000   1.8            0              155.55595      155.55595      0.0099944863   155.55595    
     18200   1.82           0              155.37066      155.37066      0.011813035    155.37066    
     18400   1.84           0              155.18654      155.18654      0.01307137     155.18654    
     18600   1.86           0              155.33924      155.33924      0.01027206     155.33924    
     18800   1.88           0              154.97062      154.97062      0.0091947258   154.97062    
     19000   1.9            0              155.07556      155.07556      0.0091772342   155.07556    
     19200   1.92           0              155.22237      155.22237      0.0085241728   155.22237    
     19400   1.94           0              155.55288      155.55288      0.0066075404   155.55288    
     19600   1.96           0              155.71656      155.71656      0.0053517202   155.71656    
     19800   1.98           0              155.64335      155.64335      0.0081281229   155.64335    
     20000   2              0              155.406        155.406        0.0079230178   155.406      
     20200   2.02           0              155.57971      155.57971      0.008186261    155.57971    
     20400   2.04           0              155.46609      155.46609      0.0062451562   155.46609    
     20600   2.06           0              155.40184      155.40184      0.0063138221   155.40184    
     20800   2.08           0              155.12094      155.12094      0.0071771679   155.12094    
     21000   2.1            0              155.05898      155.05898      0.0054338341   155.05898    
     21200   2.12           0              155.18495      155.18495      0.0072170739   155.18495    
     21400   2.14           0              155.09505      155.09505      0.0081006875   155.09505    
     21600   2.16           0              155.14325      155.14325      0.0082110469   155.14325    
     21800   2.18           0              155.15716      155.15716      0.0068951346   155.15716    
     22000   2.2            0              155.24302      155.24302      0.0081493976   155.24302    
     22200   2.22           0              155.2506       155.2506       0.0085186994   155.2506     
     22400   2.24           0              155.76199      155.76199      0.0074496015   155.76199    
     22522   2.2522         0              155.98181      155.98181      0.0070729099   155.98181    
Loop time of 579.264 on 1 procs for 20000 steps with 15000 atoms

Performance: 0.298 ns/day, 80.453 hours/ns, 34.527 timesteps/s, 517.899 katom-step/s
100.0% CPU use with 1 MPI tasks x 1 OpenMP threads

MPI task timing breakdown:
Section |  min time  |  avg time  |  max time  |%varavg| %total
---------------------------------------------------------------
Pair    | 145.72     | 145.72     | 145.72     |   0.0 | 25.16
Neigh   | 0          | 0          | 0          |   0.0 |  0.00
Comm    | 0.49931    | 0.49931    | 0.49931    |   0.0 |  0.09
Output  | 0.91233    | 0.91233    | 0.91233    |   0.0 |  0.16
Modify  | 430.74     | 430.74     | 430.74     |   0.0 | 74.36
Other   |            | 1.393      |            |       |  0.24

Nlocal:          15000 ave       15000 max       15000 min
Histogram: 1 0 0 0 0 0 0 0 0 0
Nghost:            707 ave         707 max         707 min
Histogram: 1 0 0 0 0 0 0 0 0 0
Neighs:              0 ave           0 max           0 min
Histogram: 1 0 0 0 0 0 0 0 0 0
FullNghs:        90000 ave       90000 max       90000 min
Histogram: 1 0 0 0 0 0 0 0 0 0

Total # of neighbors = 90000
Ave neighs/atom = 6
Neighbor list builds = 0
Dangerous builds = 0

print           "DYNAMICS_T${runtemp}_DONE"
DYNAMICS_T222_DONE
Total wall time: 0:09:39
