LAMMPS (10 Dec 2025 - Development - patch_10Dec2025-120-ga51f9ba0e7)
OMP_NUM_THREADS environment is not set. Defaulting to 1 thread.
  using 1 OpenMP thread(s) per MPI task
# Finite-T Langevin spin-dynamics stage for the Pd/Fe/Ir(111) effective model (see
# in.pdfeir_effective.lammps for the Hamiltonian, parameters, and their provenance).
# Run via run_scan.sh, one temperature per invocation: -var runtemp <K> -var runseed <int>
#
# Segfault root cause and fix (found by bisection, 2026-08-16):
#   `fix nve/spin` + a dynamics `run` was segfaulting on the real system on every LAMMPS
#   build tried, including a from-source rebuild with the SPIN package freshly enabled
#   (10 Dec 2025 dev snapshot). Bisected on a minimal reproducer down to: LAMMPS's
#   `pair_style hybrid/overlay` segfaults during force computation whenever it wraps
#   EXACTLY TWO SPIN-package pair substyles (confirmed for spin/exchange+spin/dmi and,
#   independently, spin/exchange+spin/magelec) -- reproduces regardless of langevin/spin,
#   fix declaration order, lattice geometry/boundary, or DMI direction, and is NOT specific
#   to this system: examples/SPIN/bfo (which combines exchange+magelec+dmi, THREE
#   substyles) ships with LAMMPS and runs fine on the exact same build. Adding a third,
#   physically-inert (zero-strength) spin/magelec substyle to pad hybrid/overlay to three
#   substyles avoids the crash entirely -- verified against this real system (600-atom
#   scaled check, 500-step Langevin run, smooth non-NaN energy relaxation) before adopting
#   it here. This is a LAMMPS bug (not a modeling error); the padding is a workaround,
#   not a physics change (magelec coefficient is exactly 0).

units           metal
atom_style      spin
dimension       3
boundary        p p f
atom_modify     map array

read_restart    restart.pdfeir_T0.equil
Reading restart file ...
  restart file = 10 Dec 2025, LAMMPS = 10 Dec 2025
  restoring atom style spin from restart
  orthogonal box = (0 0 -1.3575) to (407.25 235.1259 1.3575)
  1 by 1 by 1 MPI processor grid
  restoring pair style hybrid/overlay from restart
  15000 atoms
  read_restart CPU = 0.005 seconds

variable        rnn equal 2.715
variable        j_eff_eV equal 0.00368
variable        exch_a equal v_j_eff_eV*2.718281828/4.0
variable        rc_exch equal 1.2*${rnn}
variable        rc_exch equal 1.2*2.715
variable        d_eV equal 0.00139
variable        rc_dmi equal 1.2*${rnn}
variable        rc_dmi equal 1.2*2.715
variable        k_eV equal -0.0007

# --- workaround: pad hybrid/overlay to 3 spin substyles, see note above ---
pair_style      hybrid/overlay spin/exchange ${rc_exch} spin/dmi ${rc_dmi} spin/magelec ${rc_exch}
pair_style      hybrid/overlay spin/exchange 3.258 spin/dmi ${rc_dmi} spin/magelec ${rc_exch}
pair_style      hybrid/overlay spin/exchange 3.258 spin/dmi 3.258 spin/magelec ${rc_exch}
pair_style      hybrid/overlay spin/exchange 3.258 spin/dmi 3.258 spin/magelec 3.258
pair_coeff      * * spin/exchange exchange ${rc_exch} ${exch_a} 0.0 ${rnn} offset yes
pair_coeff      * * spin/exchange exchange 3.258 ${exch_a} 0.0 ${rnn} offset yes
pair_coeff      * * spin/exchange exchange 3.258 0.00250081928176 0.0 ${rnn} offset yes
pair_coeff      * * spin/exchange exchange 3.258 0.00250081928176 0.0 2.715 offset yes
pair_coeff      * * spin/dmi dmi ${rc_dmi} ${d_eV} 0.0 0.0 1.0
pair_coeff      * * spin/dmi dmi 3.258 ${d_eV} 0.0 0.0 1.0
pair_coeff      * * spin/dmi dmi 3.258 0.00139 0.0 0.0 1.0
pair_coeff      * * spin/magelec magelec ${rc_exch} 0.0 1.0 1.0 1.0   # zero strength: workaround only
pair_coeff      * * spin/magelec magelec 3.258 0.0 1.0 1.0 1.0   

neighbor        0.3 bin
neigh_modify    every 10 check yes delay 20

fix             1 all precession/spin zeeman 0.0 0.0 0.0 1.0 anisotropy ${k_eV} 0.0 0.0 1.0
fix             1 all precession/spin zeeman 0.0 0.0 0.0 1.0 anisotropy -0.0007 0.0 0.0 1.0
fix_modify      1 energy yes
fix             2 all langevin/spin ${runtemp} 0.05 ${runseed}
fix             2 all langevin/spin 150 0.05 ${runseed}
fix             2 all langevin/spin 150 0.05 21
fix             3 all nve/spin lattice frozen

timestep        0.0001

compute         out_mag all spin
compute         outsp all property/atom spx spy spz sp
thermo_style    custom step time temp pe etotal c_out_mag[4] c_out_mag[5]
thermo          200

dump            1 all custom 500 dump_pdfeir_T${runtemp}.lammpstrj type x y z c_outsp[1] c_outsp[2] c_outsp[3]
dump            1 all custom 500 dump_pdfeir_T150.lammpstrj type x y z c_outsp[1] c_outsp[2] c_outsp[3]

# Equilibrate then production sample. 20k steps @ dt=0.0001 ps = 2 ps -- short first pass;
# extend once the T_c ~214K checkpoint from the paper needs finer sampling.
run             20000

CITE-CITE-CITE-CITE-CITE-CITE-CITE-CITE-CITE-CITE-CITE-CITE-CITE

Your simulation uses code contributions which should be cited:

- fix nve/spin command: https://doi.org/10.1016/j.jcp.2018.06.042

@article{tranchida2018massively,
title={Massively Parallel Symplectic Algorithm for Coupled Magnetic Spin    Dynamics and Molecular Dynamics},
author={Tranchida, J and Plimpton, S J and Thibaudeau, P and Thompson, A P},
journal={Journal of Computational Physics},
volume={372},
pages={406--425},
year={2018},
publisher={Elsevier}
doi={10.1016/j.jcp.2018.06.042}
}

CITE-CITE-CITE-CITE-CITE-CITE-CITE-CITE-CITE-CITE-CITE-CITE-CITE

Generated 0 of 0 mixed pair_coeff terms from geometric mixing rule
Neighbor list info ...
  update: every = 10 steps, delay = 20 steps, check = yes
  max neighbors/atom: 2000, page size: 100000
  master list distance cutoff = 3.558
  ghost atom cutoff = 3.558
  binsize = 1.779, bins = 229 133 2
  3 neighbor lists, perpetual/occasional/extra = 3 0 0
  (1) pair spin/exchange, perpetual
      attributes: full, newton on
      pair build: full/bin/atomonly
      stencil: full/bin/3d
      bin: standard
  (2) pair spin/dmi, perpetual, copy from (1)
      attributes: full, newton on
      pair build: copy
      stencil: none
      bin: none
  (3) pair spin/magelec, perpetual, copy from (1)
      attributes: full, newton on
      pair build: copy
      stencil: none
      bin: none
WARNING: Dump 1 includes no atom IDs and is not sorted by ID. This may complicate post-processing tasks or visualization (src/dump.cpp:220)
Per MPI rank memory allocation (min/avg/max) = 6.591 | 6.591 | 6.591 Mbytes
   Step          Time           Temp          PotEng         TotEng      c_out_mag[4]   c_out_mag[5] 
      2522   0.2522         0             -1.0275171     -1.0275171      0.030922721   -1.0275171    
      2600   0.26           0              4.065301       4.065301       0.030457558    4.065301     
      2800   0.28           0              15.8473        15.8473        0.031343008    15.8473      
      3000   0.3            0              26.2518        26.2518        0.031507798    26.2518      
      3200   0.32           0              35.026516      35.026516      0.030025693    35.026516    
      3400   0.34           0              42.660943      42.660943      0.030762638    42.660943    
      3600   0.36           0              49.485963      49.485963      0.030593685    49.485963    
      3800   0.38           0              55.596107      55.596107      0.026844718    55.596107    
      4000   0.4            0              61.586551      61.586551      0.025590313    61.586551    
      4200   0.42           0              67.162562      67.162562      0.026315938    67.162562    
      4400   0.44           0              71.90628       71.90628       0.023793989    71.90628     
      4600   0.46           0              76.013823      76.013823      0.022507435    76.013823    
      4800   0.48           0              80.187126      80.187126      0.022865138    80.187126    
      5000   0.5            0              83.932121      83.932121      0.02015673     83.932121    
      5200   0.52           0              87.355655      87.355655      0.019644375    87.355655    
      5400   0.54           0              90.094415      90.094415      0.018674822    90.094415    
      5600   0.56           0              93.102076      93.102076      0.01760016     93.102076    
      5800   0.58           0              95.521293      95.521293      0.018992405    95.521293    
      6000   0.6            0              97.822519      97.822519      0.018931854    97.822519    
      6200   0.62           0              100.50396      100.50396      0.017310799    100.50396    
      6400   0.64           0              103.19893      103.19893      0.017242334    103.19893    
      6600   0.66           0              105.59482      105.59482      0.016748249    105.59482    
      6800   0.68           0              108.05229      108.05229      0.016588762    108.05229    
      7000   0.7            0              110.18452      110.18452      0.015935852    110.18452    
      7200   0.72           0              112.02693      112.02693      0.01511868     112.02693    
      7400   0.74           0              113.61457      113.61457      0.015456121    113.61457    
      7600   0.76           0              115.00177      115.00177      0.015969528    115.00177    
      7800   0.78           0              116.64451      116.64451      0.016923744    116.64451    
      8000   0.8            0              118.40366      118.40366      0.014261213    118.40366    
      8200   0.82           0              119.5023       119.5023       0.011993183    119.5023     
      8400   0.84           0              120.48744      120.48744      0.012707253    120.48744    
      8600   0.86           0              121.56937      121.56937      0.015231963    121.56937    
      8800   0.88           0              122.54707      122.54707      0.016082442    122.54707    
      9000   0.9            0              123.43806      123.43806      0.015170426    123.43806    
      9200   0.92           0              124.32719      124.32719      0.017204961    124.32719    
      9400   0.94           0              125.40233      125.40233      0.017052027    125.40233    
      9600   0.96           0              126.44799      126.44799      0.016441825    126.44799    
      9800   0.98           0              127.70798      127.70798      0.014890564    127.70798    
     10000   1              0              128.68283      128.68283      0.016324853    128.68283    
     10200   1.02           0              129.58452      129.58452      0.014063385    129.58452    
     10400   1.04           0              130.4833       130.4833       0.014570419    130.4833     
     10600   1.06           0              131.12926      131.12926      0.014047201    131.12926    
     10800   1.08           0              131.85913      131.85913      0.012789452    131.85913    
     11000   1.1            0              132.80543      132.80543      0.011607713    132.80543    
     11200   1.12           0              133.56518      133.56518      0.012786182    133.56518    
     11400   1.14           0              133.8391       133.8391       0.010052519    133.8391     
     11600   1.16           0              134.71934      134.71934      0.0091028904   134.71934    
     11800   1.18           0              135.4479       135.4479       0.0083187144   135.4479     
     12000   1.2            0              136.19053      136.19053      0.011023579    136.19053    
     12200   1.22           0              136.92822      136.92822      0.011853344    136.92822    
     12400   1.24           0              137.52694      137.52694      0.012051041    137.52694    
     12600   1.26           0              137.90854      137.90854      0.011638553    137.90854    
     12800   1.28           0              138.15837      138.15837      0.01228188     138.15837    
     13000   1.3            0              138.29353      138.29353      0.012328022    138.29353    
     13200   1.32           0              138.74729      138.74729      0.012742127    138.74729    
     13400   1.34           0              138.74033      138.74033      0.0095410232   138.74033    
     13600   1.36           0              139.45248      139.45248      0.0090929073   139.45248    
     13800   1.38           0              139.70348      139.70348      0.011267955    139.70348    
     14000   1.4            0              140.52996      140.52996      0.0106069      140.52996    
     14200   1.42           0              140.82726      140.82726      0.0095721679   140.82726    
     14400   1.44           0              141.06911      141.06911      0.0077335359   141.06911    
     14600   1.46           0              141.25792      141.25792      0.0068416574   141.25792    
     14800   1.48           0              141.65342      141.65342      0.0050170039   141.65342    
     15000   1.5            0              142.0199       142.0199       0.0063850017   142.0199     
     15200   1.52           0              142.20461      142.20461      0.0058246805   142.20461    
     15400   1.54           0              142.04041      142.04041      0.0074891194   142.04041    
     15600   1.56           0              142.02463      142.02463      0.0083733499   142.02463    
     15800   1.58           0              142.15452      142.15452      0.0068584392   142.15452    
     16000   1.6            0              142.39244      142.39244      0.0078935472   142.39244    
     16200   1.62           0              142.59801      142.59801      0.0090681826   142.59801    
     16400   1.64           0              142.91493      142.91493      0.0085521452   142.91493    
     16600   1.66           0              143.25872      143.25872      0.0093341067   143.25872    
     16800   1.68           0              143.56979      143.56979      0.0082572451   143.56979    
     17000   1.7            0              143.55971      143.55971      0.0091334372   143.55971    
     17200   1.72           0              143.74729      143.74729      0.010735563    143.74729    
     17400   1.74           0              143.70763      143.70763      0.0097834556   143.70763    
     17600   1.76           0              144.01748      144.01748      0.0079998061   144.01748    
     17800   1.78           0              143.83844      143.83844      0.01157735     143.83844    
     18000   1.8            0              143.78674      143.78674      0.0083542014   143.78674    
     18200   1.82           0              143.98941      143.98941      0.0061449541   143.98941    
     18400   1.84           0              144.2304       144.2304       0.004158193    144.2304     
     18600   1.86           0              144.30846      144.30846      0.0024305658   144.30846    
     18800   1.88           0              144.34027      144.34027      0.0034545643   144.34027    
     19000   1.9            0              144.56112      144.56112      0.0047112566   144.56112    
     19200   1.92           0              144.866        144.866        0.005338078    144.866      
     19400   1.94           0              144.89405      144.89405      0.0058207088   144.89405    
     19600   1.96           0              145.19178      145.19178      0.0072260355   145.19178    
     19800   1.98           0              144.76466      144.76466      0.0073366843   144.76466    
     20000   2              0              144.93706      144.93706      0.0070223208   144.93706    
     20200   2.02           0              145.11343      145.11343      0.0060744707   145.11343    
     20400   2.04           0              145.1305       145.1305       0.0051673487   145.1305     
     20600   2.06           0              145.02497      145.02497      0.0052540775   145.02497    
     20800   2.08           0              145.5093       145.5093       0.0093957938   145.5093     
     21000   2.1            0              145.5873       145.5873       0.0071544653   145.5873     
     21200   2.12           0              145.69381      145.69381      0.0061175269   145.69381    
     21400   2.14           0              146.05065      146.05065      0.0057395671   146.05065    
     21600   2.16           0              146.30574      146.30574      0.0055330641   146.30574    
     21800   2.18           0              146.43462      146.43462      0.0053309202   146.43462    
     22000   2.2            0              146.70098      146.70098      0.0069296074   146.70098    
     22200   2.22           0              146.68429      146.68429      0.0051283839   146.68429    
     22400   2.24           0              146.72832      146.72832      0.0041890903   146.72832    
     22522   2.2522         0              146.8174       146.8174       0.0034336065   146.8174     
Loop time of 517.074 on 1 procs for 20000 steps with 15000 atoms

Performance: 0.334 ns/day, 71.816 hours/ns, 38.679 timesteps/s, 580.188 katom-step/s
99.9% CPU use with 1 MPI tasks x 1 OpenMP threads

MPI task timing breakdown:
Section |  min time  |  avg time  |  max time  |%varavg| %total
---------------------------------------------------------------
Pair    | 132.52     | 132.52     | 132.52     |   0.0 | 25.63
Neigh   | 0          | 0          | 0          |   0.0 |  0.00
Comm    | 1.1981     | 1.1981     | 1.1981     |   0.0 |  0.23
Output  | 0.87011    | 0.87011    | 0.87011    |   0.0 |  0.17
Modify  | 378.94     | 378.94     | 378.94     |   0.0 | 73.28
Other   |            | 3.546      |            |       |  0.69

Nlocal:          15000 ave       15000 max       15000 min
Histogram: 1 0 0 0 0 0 0 0 0 0
Nghost:            707 ave         707 max         707 min
Histogram: 1 0 0 0 0 0 0 0 0 0
Neighs:              0 ave           0 max           0 min
Histogram: 1 0 0 0 0 0 0 0 0 0
FullNghs:        90000 ave       90000 max       90000 min
Histogram: 1 0 0 0 0 0 0 0 0 0

Total # of neighbors = 90000
Ave neighs/atom = 6
Neighbor list builds = 0
Dangerous builds = 0

print           "DYNAMICS_T${runtemp}_DONE"
DYNAMICS_T150_DONE
Total wall time: 0:08:37
