LAMMPS (10 Dec 2025 - Development - patch_10Dec2025-120-ga51f9ba0e7)
OMP_NUM_THREADS environment is not set. Defaulting to 1 thread.
  using 1 OpenMP thread(s) per MPI task
# Finite-T Langevin spin-dynamics stage for the Pd/Fe/Ir(111) effective model (see
# in.pdfeir_effective.lammps for the Hamiltonian, parameters, and their provenance).
# Run via run_scan.sh, one temperature per invocation: -var runtemp <K> -var runseed <int>
#
# Segfault root cause and fix (found by bisection, 2026-08-16):
#   `fix nve/spin` + a dynamics `run` was segfaulting on the real system on every LAMMPS
#   build tried, including a from-source rebuild with the SPIN package freshly enabled
#   (10 Dec 2025 dev snapshot). Bisected on a minimal reproducer down to: LAMMPS's
#   `pair_style hybrid/overlay` segfaults during force computation whenever it wraps
#   EXACTLY TWO SPIN-package pair substyles (confirmed for spin/exchange+spin/dmi and,
#   independently, spin/exchange+spin/magelec) -- reproduces regardless of langevin/spin,
#   fix declaration order, lattice geometry/boundary, or DMI direction, and is NOT specific
#   to this system: examples/SPIN/bfo (which combines exchange+magelec+dmi, THREE
#   substyles) ships with LAMMPS and runs fine on the exact same build. Adding a third,
#   physically-inert (zero-strength) spin/magelec substyle to pad hybrid/overlay to three
#   substyles avoids the crash entirely -- verified against this real system (600-atom
#   scaled check, 500-step Langevin run, smooth non-NaN energy relaxation) before adopting
#   it here. This is a LAMMPS bug (not a modeling error); the padding is a workaround,
#   not a physics change (magelec coefficient is exactly 0).

units           metal
atom_style      spin
dimension       3
boundary        p p f
atom_modify     map array

read_restart    restart.pdfeir_T0.equil
Reading restart file ...
  restart file = 10 Dec 2025, LAMMPS = 10 Dec 2025
  restoring atom style spin from restart
  orthogonal box = (0 0 -1.3575) to (407.25 235.1259 1.3575)
  1 by 1 by 1 MPI processor grid
  restoring pair style hybrid/overlay from restart
  15000 atoms
  read_restart CPU = 0.004 seconds

variable        rnn equal 2.715
variable        j_eff_eV equal 0.00368
variable        exch_a equal v_j_eff_eV*2.718281828/4.0
variable        rc_exch equal 1.2*${rnn}
variable        rc_exch equal 1.2*2.715
variable        d_eV equal 0.00139
variable        rc_dmi equal 1.2*${rnn}
variable        rc_dmi equal 1.2*2.715
variable        k_eV equal -0.0007

# --- workaround: pad hybrid/overlay to 3 spin substyles, see note above ---
pair_style      hybrid/overlay spin/exchange ${rc_exch} spin/dmi ${rc_dmi} spin/magelec ${rc_exch}
pair_style      hybrid/overlay spin/exchange 3.258 spin/dmi ${rc_dmi} spin/magelec ${rc_exch}
pair_style      hybrid/overlay spin/exchange 3.258 spin/dmi 3.258 spin/magelec ${rc_exch}
pair_style      hybrid/overlay spin/exchange 3.258 spin/dmi 3.258 spin/magelec 3.258
pair_coeff      * * spin/exchange exchange ${rc_exch} ${exch_a} 0.0 ${rnn} offset yes
pair_coeff      * * spin/exchange exchange 3.258 ${exch_a} 0.0 ${rnn} offset yes
pair_coeff      * * spin/exchange exchange 3.258 0.00250081928176 0.0 ${rnn} offset yes
pair_coeff      * * spin/exchange exchange 3.258 0.00250081928176 0.0 2.715 offset yes
pair_coeff      * * spin/dmi dmi ${rc_dmi} ${d_eV} 0.0 0.0 1.0
pair_coeff      * * spin/dmi dmi 3.258 ${d_eV} 0.0 0.0 1.0
pair_coeff      * * spin/dmi dmi 3.258 0.00139 0.0 0.0 1.0
pair_coeff      * * spin/magelec magelec ${rc_exch} 0.0 1.0 1.0 1.0   # zero strength: workaround only
pair_coeff      * * spin/magelec magelec 3.258 0.0 1.0 1.0 1.0   

neighbor        0.3 bin
neigh_modify    every 10 check yes delay 20

fix             1 all precession/spin zeeman 0.0 0.0 0.0 1.0 anisotropy ${k_eV} 0.0 0.0 1.0
fix             1 all precession/spin zeeman 0.0 0.0 0.0 1.0 anisotropy -0.0007 0.0 0.0 1.0
fix_modify      1 energy yes
fix             2 all langevin/spin ${runtemp} 0.05 ${runseed}
fix             2 all langevin/spin 200 0.05 ${runseed}
fix             2 all langevin/spin 200 0.05 21
fix             3 all nve/spin lattice frozen

timestep        0.0001

compute         out_mag all spin
compute         outsp all property/atom spx spy spz sp
thermo_style    custom step time temp pe etotal c_out_mag[4] c_out_mag[5]
thermo          200

dump            1 all custom 500 dump_pdfeir_T${runtemp}_s${runseed}.lammpstrj type x y z c_outsp[1] c_outsp[2] c_outsp[3]
dump            1 all custom 500 dump_pdfeir_T200_s${runseed}.lammpstrj type x y z c_outsp[1] c_outsp[2] c_outsp[3]
dump            1 all custom 500 dump_pdfeir_T200_s21.lammpstrj type x y z c_outsp[1] c_outsp[2] c_outsp[3]

# Equilibrate then production sample. 20k steps @ dt=0.0001 ps = 2 ps -- short first pass;
# extend once the T_c ~214K checkpoint from the paper needs finer sampling.
run             20000

CITE-CITE-CITE-CITE-CITE-CITE-CITE-CITE-CITE-CITE-CITE-CITE-CITE

Your simulation uses code contributions which should be cited:

- fix nve/spin command: https://doi.org/10.1016/j.jcp.2018.06.042

@article{tranchida2018massively,
title={Massively Parallel Symplectic Algorithm for Coupled Magnetic Spin    Dynamics and Molecular Dynamics},
author={Tranchida, J and Plimpton, S J and Thibaudeau, P and Thompson, A P},
journal={Journal of Computational Physics},
volume={372},
pages={406--425},
year={2018},
publisher={Elsevier}
doi={10.1016/j.jcp.2018.06.042}
}

CITE-CITE-CITE-CITE-CITE-CITE-CITE-CITE-CITE-CITE-CITE-CITE-CITE

Generated 0 of 0 mixed pair_coeff terms from geometric mixing rule
Neighbor list info ...
  update: every = 10 steps, delay = 20 steps, check = yes
  max neighbors/atom: 2000, page size: 100000
  master list distance cutoff = 3.558
  ghost atom cutoff = 3.558
  binsize = 1.779, bins = 229 133 2
  3 neighbor lists, perpetual/occasional/extra = 3 0 0
  (1) pair spin/exchange, perpetual
      attributes: full, newton on
      pair build: full/bin/atomonly
      stencil: full/bin/3d
      bin: standard
  (2) pair spin/dmi, perpetual, copy from (1)
      attributes: full, newton on
      pair build: copy
      stencil: none
      bin: none
  (3) pair spin/magelec, perpetual, copy from (1)
      attributes: full, newton on
      pair build: copy
      stencil: none
      bin: none
WARNING: Dump 1 includes no atom IDs and is not sorted by ID. This may complicate post-processing tasks or visualization (src/dump.cpp:220)
Per MPI rank memory allocation (min/avg/max) = 6.591 | 6.591 | 6.591 Mbytes
   Step          Time           Temp          PotEng         TotEng      c_out_mag[4]   c_out_mag[5] 
      2522   0.2522         0             -1.0275171     -1.0275171      0.030922721   -1.0275171    
      2600   0.26           0              5.7283875      5.7283875      0.030319275    5.7283875    
      2800   0.28           0              21.107222      21.107222      0.031281092    21.107222    
      3000   0.3            0              34.41251       34.41251       0.031186452    34.41251     
      3200   0.32           0              45.392736      45.392736      0.029323067    45.392736    
      3400   0.34           0              54.786555      54.786555      0.030169995    54.786555    
      3600   0.36           0              63.119202      63.119202      0.030004888    63.119202    
      3800   0.38           0              70.531832      70.531832      0.025747813    70.531832    
      4000   0.4            0              77.674296      77.674296      0.024459057    77.674296    
      4200   0.42           0              84.05279       84.05279       0.025121764    84.05279     
      4400   0.44           0              89.538527      89.538527      0.022343035    89.538527    
      4600   0.46           0              94.290642      94.290642      0.020538409    94.290642    
      4800   0.48           0              99.049529      99.049529      0.020855661    99.049529    
      5000   0.5            0              103.11112      103.11112      0.017081454    103.11112    
      5200   0.52           0              106.80307      106.80307      0.016199666    106.80307    
      5400   0.54           0              109.72057      109.72057      0.015936759    109.72057    
      5600   0.56           0              113.17456      113.17456      0.015023515    113.17456    
      5800   0.58           0              115.4742       115.4742       0.017158043    115.4742     
      6000   0.6            0              118.17895      118.17895      0.01653192     118.17895    
      6200   0.62           0              120.9446       120.9446       0.013689267    120.9446     
      6400   0.64           0              123.31741      123.31741      0.0129133      123.31741    
      6600   0.66           0              125.67893      125.67893      0.011989835    125.67893    
      6800   0.68           0              127.70466      127.70466      0.01235157     127.70466    
      7000   0.7            0              129.21018      129.21018      0.011267048    129.21018    
      7200   0.72           0              131.3223       131.3223       0.012322659    131.3223     
      7400   0.74           0              132.70561      132.70561      0.012700915    132.70561    
      7600   0.76           0              134.08026      134.08026      0.012917667    134.08026    
      7800   0.78           0              135.18408      135.18408      0.01299989     135.18408    
      8000   0.8            0              136.64053      136.64053      0.011773305    136.64053    
      8200   0.82           0              137.36111      137.36111      0.0090944884   137.36111    
      8400   0.84           0              138.34581      138.34581      0.010919151    138.34581    
      8600   0.86           0              139.70917      139.70917      0.0095851798   139.70917    
      8800   0.88           0              140.63789      140.63789      0.013357326    140.63789    
      9000   0.9            0              141.52529      141.52529      0.014609498    141.52529    
      9200   0.92           0              142.38176      142.38176      0.015439905    142.38176    
      9400   0.94           0              142.79512      142.79512      0.015746664    142.79512    
      9600   0.96           0              143.64373      143.64373      0.014235977    143.64373    
      9800   0.98           0              144.3372       144.3372       0.012669237    144.3372     
     10000   1              0              145.32848      145.32848      0.013767033    145.32848    
     10200   1.02           0              145.88923      145.88923      0.014539711    145.88923    
     10400   1.04           0              146.58961      146.58961      0.0155691      146.58961    
     10600   1.06           0              147.22347      147.22347      0.01576897     147.22347    
     10800   1.08           0              147.44307      147.44307      0.01644403     147.44307    
     11000   1.1            0              148.08995      148.08995      0.014723133    148.08995    
     11200   1.12           0              148.44601      148.44601      0.014245071    148.44601    
     11400   1.14           0              148.72971      148.72971      0.01231688     148.72971    
     11600   1.16           0              149.16051      149.16051      0.0091894607   149.16051    
     11800   1.18           0              149.60316      149.60316      0.0092739914   149.60316    
     12000   1.2            0              149.8915       149.8915       0.0088222508   149.8915     
     12200   1.22           0              150.34213      150.34213      0.0079015821   150.34213    
     12400   1.24           0              150.55173      150.55173      0.0079102136   150.55173    
     12600   1.26           0              150.42377      150.42377      0.0072411317   150.42377    
     12800   1.28           0              151.0354       151.0354       0.0057600812   151.0354     
     13000   1.3            0              151.17217      151.17217      0.0072607436   151.17217    
     13200   1.32           0              151.50126      151.50126      0.0066274236   151.50126    
     13400   1.34           0              151.48431      151.48431      0.0046750357   151.48431    
     13600   1.36           0              151.28375      151.28375      0.004303092    151.28375    
     13800   1.38           0              151.28041      151.28041      0.0056569781   151.28041    
     14000   1.4            0              151.66345      151.66345      0.0050416038   151.66345    
     14200   1.42           0              151.44294      151.44294      0.0063912311   151.44294    
     14400   1.44           0              152.00266      152.00266      0.0056697148   152.00266    
     14600   1.46           0              152.18514      152.18514      0.0074548484   152.18514    
     14800   1.48           0              152.24923      152.24923      0.0080355934   152.24923    
     15000   1.5            0              152.51225      152.51225      0.0093288746   152.51225    
     15200   1.52           0              152.41042      152.41042      0.0092507928   152.41042    
     15400   1.54           0              152.33288      152.33288      0.0079630471   152.33288    
     15600   1.56           0              152.57753      152.57753      0.0078231382   152.57753    
     15800   1.58           0              152.52485      152.52485      0.0082551339   152.52485    
     16000   1.6            0              152.62813      152.62813      0.0076062223   152.62813    
     16200   1.62           0              153.26666      153.26666      0.0061462139   153.26666    
     16400   1.64           0              153.79727      153.79727      0.0071147737   153.79727    
     16600   1.66           0              153.29541      153.29541      0.0064357493   153.29541    
     16800   1.68           0              153.18249      153.18249      0.0036441807   153.18249    
     17000   1.7            0              153.00692      153.00692      0.0014411667   153.00692    
     17200   1.72           0              153.35725      153.35725      0.0021084977   153.35725    
     17400   1.74           0              153.56264      153.56264      0.0018681234   153.56264    
     17600   1.76           0              153.77958      153.77958      0.0052238027   153.77958    
     17800   1.78           0              153.80572      153.80572      0.0017237799   153.80572    
     18000   1.8            0              153.72089      153.72089      0.0036818622   153.72089    
     18200   1.82           0              153.80328      153.80328      0.0045241964   153.80328    
     18400   1.84           0              153.78215      153.78215      0.0043404229   153.78215    
     18600   1.86           0              154.12013      154.12013      0.0063549226   154.12013    
     18800   1.88           0              154.14909      154.14909      0.0035421104   154.14909    
     19000   1.9            0              154.12637      154.12637      0.0041320421   154.12637    
     19200   1.92           0              154.25463      154.25463      0.0038787595   154.25463    
     19400   1.94           0              154.70883      154.70883      0.0053700734   154.70883    
     19600   1.96           0              154.87007      154.87007      0.0049952244   154.87007    
     19800   1.98           0              154.91236      154.91236      0.0054308521   154.91236    
     20000   2              0              154.37381      154.37381      0.0064357262   154.37381    
     20200   2.02           0              154.28074      154.28074      0.010876424    154.28074    
     20400   2.04           0              154.10861      154.10861      0.011430595    154.10861    
     20600   2.06           0              153.77161      153.77161      0.012854823    153.77161    
     20800   2.08           0              153.65506      153.65506      0.01260633     153.65506    
     21000   2.1            0              153.78325      153.78325      0.013421706    153.78325    
     21200   2.12           0              153.76902      153.76902      0.010791931    153.76902    
     21400   2.14           0              153.47865      153.47865      0.010335757    153.47865    
     21600   2.16           0              153.60068      153.60068      0.012043353    153.60068    
     21800   2.18           0              153.34473      153.34473      0.012907579    153.34473    
     22000   2.2            0              153.10188      153.10188      0.014616688    153.10188    
     22200   2.22           0              153.17756      153.17756      0.017191921    153.17756    
     22400   2.24           0              153.10564      153.10564      0.014215904    153.10564    
     22522   2.2522         0              152.99338      152.99338      0.012461595    152.99338    
Loop time of 568.874 on 1 procs for 20000 steps with 15000 atoms

Performance: 0.304 ns/day, 79.010 hours/ns, 35.157 timesteps/s, 527.358 katom-step/s
100.0% CPU use with 1 MPI tasks x 1 OpenMP threads

MPI task timing breakdown:
Section |  min time  |  avg time  |  max time  |%varavg| %total
---------------------------------------------------------------
Pair    | 145.47     | 145.47     | 145.47     |   0.0 | 25.57
Neigh   | 0          | 0          | 0          |   0.0 |  0.00
Comm    | 0.50452    | 0.50452    | 0.50452    |   0.0 |  0.09
Output  | 0.91368    | 0.91368    | 0.91368    |   0.0 |  0.16
Modify  | 420.6      | 420.6      | 420.6      |   0.0 | 73.94
Other   |            | 1.379      |            |       |  0.24

Nlocal:          15000 ave       15000 max       15000 min
Histogram: 1 0 0 0 0 0 0 0 0 0
Nghost:            707 ave         707 max         707 min
Histogram: 1 0 0 0 0 0 0 0 0 0
Neighs:              0 ave           0 max           0 min
Histogram: 1 0 0 0 0 0 0 0 0 0
FullNghs:        90000 ave       90000 max       90000 min
Histogram: 1 0 0 0 0 0 0 0 0 0

Total # of neighbors = 90000
Ave neighs/atom = 6
Neighbor list builds = 0
Dangerous builds = 0

print           "DYNAMICS_T${runtemp}_DONE"
DYNAMICS_T200_DONE
Total wall time: 0:09:28
