LAMMPS (10 Dec 2025 - Development - patch_10Dec2025-120-ga51f9ba0e7)
OMP_NUM_THREADS environment is not set. Defaulting to 1 thread.
  using 1 OpenMP thread(s) per MPI task
# Finite-T Langevin spin-dynamics stage for mp-754090 (Li4Fe2TeWO12), placeholder-DMI
# effective model -- see in.mp754090_effective.lammps for Hamiltonian, J derivation from
# real DFT, and the explicit "DMI is a placeholder, not DFT" caveat. Do not read physical
# conclusions (Tc, textures, chirality) off this run; it exists to get a first qualitative
# look while the real noncollinear+SOC DFT job for D is pending.
#
# Run via run_scan_parallel_mp754090.sh, one temperature/seed per invocation:
#   -var runtemp <K> -var runseed <int>
#
# Same LAMMPS-build workaround as in.pdfeir_dynamics.lammps: hybrid/overlay segfaults with
# exactly 2 spin substyles on this build, padded to 3 with a zero-strength spin/magelec term.

units           metal
atom_style      spin
dimension       3
boundary        p p p
atom_modify     map array

read_restart    restart.mp754090_T0.equil
Reading restart file ...
  restart file = 10 Dec 2025, LAMMPS = 10 Dec 2025
  restoring atom style spin from restart
  triclinic box = (0 0 0) to (86.604109 72.44143 33.758371) with tilt (47.827887 47.809739 49.151162)
WARNING: Triclinic box skew is large. LAMMPS will run inefficiently. (src/domain.cpp:221)
  1 by 1 by 1 MPI processor grid
  restoring pair style hybrid/overlay from restart
  2048 atoms
  read_restart CPU = 0.002 seconds

variable        j_eff_eV equal 0.012058385
variable        d_shell equal 5.132075
variable        exch_a equal v_j_eff_eV*2.718281828/4.0
variable        rc_exch equal 5.25
variable        d_eV equal 0.003
variable        rc_dmi equal 5.25

pair_style      hybrid/overlay spin/exchange ${rc_exch} spin/dmi ${rc_dmi} spin/magelec ${rc_exch}
pair_style      hybrid/overlay spin/exchange 5.25 spin/dmi ${rc_dmi} spin/magelec ${rc_exch}
pair_style      hybrid/overlay spin/exchange 5.25 spin/dmi 5.25 spin/magelec ${rc_exch}
pair_style      hybrid/overlay spin/exchange 5.25 spin/dmi 5.25 spin/magelec 5.25
pair_coeff      * * spin/exchange exchange ${rc_exch} ${exch_a} 0.0 ${d_shell} offset yes
pair_coeff      * * spin/exchange exchange 5.25 ${exch_a} 0.0 ${d_shell} offset yes
pair_coeff      * * spin/exchange exchange 5.25 0.00819452220513194 0.0 ${d_shell} offset yes
pair_coeff      * * spin/exchange exchange 5.25 0.00819452220513194 0.0 5.132075 offset yes
pair_coeff      * * spin/dmi dmi ${rc_dmi} ${d_eV} 0.0 0.0 1.0
pair_coeff      * * spin/dmi dmi 5.25 ${d_eV} 0.0 0.0 1.0
pair_coeff      * * spin/dmi dmi 5.25 0.003 0.0 0.0 1.0
pair_coeff      * * spin/magelec magelec ${rc_exch} 0.0 1.0 1.0 1.0   # zero strength: segfault workaround only
pair_coeff      * * spin/magelec magelec 5.25 0.0 1.0 1.0 1.0   

neighbor        0.3 bin
neigh_modify    every 10 check yes delay 20

fix             1 all precession/spin zeeman 0.0 0.0 0.0 1.0
fix_modify      1 energy yes
fix             2 all langevin/spin ${runtemp} 0.05 ${runseed}
fix             2 all langevin/spin 25 0.05 ${runseed}
fix             2 all langevin/spin 25 0.05 21
fix             3 all nve/spin lattice frozen

timestep        0.0001

compute         out_mag all spin
compute         outsp all property/atom spx spy spz sp
thermo_style    custom step time temp pe etotal c_out_mag[4] c_out_mag[5]
thermo          200

dump            1 all custom 500 dump_mp754090_T${runtemp}_s${runseed}.lammpstrj type x y z c_outsp[1] c_outsp[2] c_outsp[3]
dump            1 all custom 500 dump_mp754090_T25_s${runseed}.lammpstrj type x y z c_outsp[1] c_outsp[2] c_outsp[3]
dump            1 all custom 500 dump_mp754090_T25_s21.lammpstrj type x y z c_outsp[1] c_outsp[2] c_outsp[3]

# Coarse first pass -- 20k steps @ dt=0.0001 ps = 2 ps, same length as pdfeir's first pass.
run             20000

CITE-CITE-CITE-CITE-CITE-CITE-CITE-CITE-CITE-CITE-CITE-CITE-CITE

Your simulation uses code contributions which should be cited:

- fix nve/spin command: https://doi.org/10.1016/j.jcp.2018.06.042

@article{tranchida2018massively,
title={Massively Parallel Symplectic Algorithm for Coupled Magnetic Spin    Dynamics and Molecular Dynamics},
author={Tranchida, J and Plimpton, S J and Thibaudeau, P and Thompson, A P},
journal={Journal of Computational Physics},
volume={372},
pages={406--425},
year={2018},
publisher={Elsevier}
doi={10.1016/j.jcp.2018.06.042}
}

CITE-CITE-CITE-CITE-CITE-CITE-CITE-CITE-CITE-CITE-CITE-CITE-CITE

Generated 0 of 0 mixed pair_coeff terms from geometric mixing rule
Neighbor list info ...
  update: every = 10 steps, delay = 20 steps, check = yes
  max neighbors/atom: 2000, page size: 100000
  master list distance cutoff = 5.55
  ghost atom cutoff = 5.55
  binsize = 2.775, bins = 66 44 13
  3 neighbor lists, perpetual/occasional/extra = 3 0 0
  (1) pair spin/exchange, perpetual
      attributes: full, newton on
      pair build: full/bin/atomonly
      stencil: full/bin/3d
      bin: standard
  (2) pair spin/dmi, perpetual, copy from (1)
      attributes: full, newton on
      pair build: copy
      stencil: none
      bin: none
  (3) pair spin/magelec, perpetual, copy from (1)
      attributes: full, newton on
      pair build: copy
      stencil: none
      bin: none
WARNING: Dump 1 includes no atom IDs and is not sorted by ID. This may complicate post-processing tasks or visualization (src/dump.cpp:220)
Per MPI rank memory allocation (min/avg/max) = 5.919 | 5.919 | 5.919 Mbytes
   Step          Time           Temp          PotEng         TotEng      c_out_mag[4]   c_out_mag[5] 
       396   0.0396         0              0.16923922     0.16923922     0.071743915    0.16923922   
       400   0.04           0              0.18894404     0.18894404     0.071764114    0.18894404   
       600   0.06           0              1.0361758      1.0361758      0.072522316    1.0361758    
       800   0.08           0              1.7652094      1.7652094      0.071677764    1.7652094    
      1000   0.1            0              2.2690058      2.2690058      0.073925817    2.2690058    
      1200   0.12           0              2.6543021      2.6543021      0.073400533    2.6543021    
      1400   0.14           0              3.0207732      3.0207732      0.07353289     3.0207732    
      1600   0.16           0              3.2915093      3.2915093      0.074463211    3.2915093    
      1800   0.18           0              3.4413065      3.4413065      0.073940302    3.4413065    
      2000   0.2            0              3.5331035      3.5331035      0.074522229    3.5331035    
      2200   0.22           0              3.6951417      3.6951417      0.07224569     3.6951417    
      2400   0.24           0              3.7596133      3.7596133      0.072800827    3.7596133    
      2600   0.26           0              3.9353433      3.9353433      0.071350135    3.9353433    
      2800   0.28           0              4.0412263      4.0412263      0.069543865    4.0412263    
      3000   0.3            0              4.2491723      4.2491723      0.070647932    4.2491723    
      3200   0.32           0              4.2544035      4.2544035      0.070676817    4.2544035    
      3400   0.34           0              4.2561573      4.2561573      0.071311254    4.2561573    
      3600   0.36           0              4.324837       4.324837       0.070443514    4.324837     
      3800   0.38           0              4.2706201      4.2706201      0.071527376    4.2706201    
      4000   0.4            0              4.2003458      4.2003458      0.074070071    4.2003458    
      4200   0.42           0              4.2647485      4.2647485      0.076271573    4.2647485    
      4400   0.44           0              4.3719301      4.3719301      0.074875654    4.3719301    
      4600   0.46           0              4.3210665      4.3210665      0.074281517    4.3210665    
      4800   0.48           0              4.3475888      4.3475888      0.077836993    4.3475888    
      5000   0.5            0              4.4850176      4.4850176      0.076734238    4.4850176    
      5200   0.52           0              4.278269       4.278269       0.0756993      4.278269     
      5400   0.54           0              4.338444       4.338444       0.075436227    4.338444     
      5600   0.56           0              4.3671293      4.3671293      0.075224975    4.3671293    
      5800   0.58           0              4.3813763      4.3813763      0.074779714    4.3813763    
      6000   0.6            0              4.4255379      4.4255379      0.074151884    4.4255379    
      6200   0.62           0              4.3137695      4.3137695      0.074226284    4.3137695    
      6400   0.64           0              4.3160644      4.3160644      0.075190538    4.3160644    
      6600   0.66           0              4.4019415      4.4019415      0.075149267    4.4019415    
      6800   0.68           0              4.4420469      4.4420469      0.077248823    4.4420469    
      7000   0.7            0              4.4941266      4.4941266      0.078619398    4.4941266    
      7200   0.72           0              4.4697246      4.4697246      0.077192595    4.4697246    
      7400   0.74           0              4.4557168      4.4557168      0.077349462    4.4557168    
      7600   0.76           0              4.4749722      4.4749722      0.07891624     4.4749722    
      7800   0.78           0              4.4268502      4.4268502      0.079042208    4.4268502    
      8000   0.8            0              4.4751676      4.4751676      0.07741076     4.4751676    
      8200   0.82           0              4.5203958      4.5203958      0.077470156    4.5203958    
      8400   0.84           0              4.5520892      4.5520892      0.079356221    4.5520892    
      8600   0.86           0              4.5257949      4.5257949      0.079520582    4.5257949    
      8800   0.88           0              4.4471294      4.4471294      0.080444141    4.4471294    
      9000   0.9            0              4.3997114      4.3997114      0.0790881      4.3997114    
      9200   0.92           0              4.407572       4.407572       0.079955594    4.407572     
      9400   0.94           0              4.4745133      4.4745133      0.079929449    4.4745133    
      9600   0.96           0              4.5409707      4.5409707      0.080580215    4.5409707    
      9800   0.98           0              4.5672829      4.5672829      0.080253416    4.5672829    
     10000   1              0              4.5478598      4.5478598      0.081180932    4.5478598    
     10200   1.02           0              4.5918162      4.5918162      0.080648012    4.5918162    
     10400   1.04           0              4.5549977      4.5549977      0.079772028    4.5549977    
     10600   1.06           0              4.5927966      4.5927966      0.079937654    4.5927966    
     10800   1.08           0              4.4977975      4.4977975      0.079615307    4.4977975    
     11000   1.1            0              4.4773745      4.4773745      0.076525795    4.4773745    
     11200   1.12           0              4.5492295      4.5492295      0.076432499    4.5492295    
     11400   1.14           0              4.5133149      4.5133149      0.076819966    4.5133149    
     11600   1.16           0              4.5150991      4.5150991      0.076272408    4.5150991    
     11800   1.18           0              4.5322866      4.5322866      0.074768557    4.5322866    
     12000   1.2            0              4.4704141      4.4704141      0.074989244    4.4704141    
     12200   1.22           0              4.5074999      4.5074999      0.075881461    4.5074999    
     12400   1.24           0              4.564984       4.564984       0.074197755    4.564984     
     12600   1.26           0              4.5906916      4.5906916      0.073070302    4.5906916    
     12800   1.28           0              4.6107572      4.6107572      0.072529002    4.6107572    
     13000   1.3            0              4.5717289      4.5717289      0.071611875    4.5717289    
     13200   1.32           0              4.5418063      4.5418063      0.072388497    4.5418063    
     13400   1.34           0              4.4935001      4.4935001      0.073981739    4.4935001    
     13600   1.36           0              4.6744991      4.6744991      0.073125666    4.6744991    
     13800   1.38           0              4.6728293      4.6728293      0.071562873    4.6728293    
     14000   1.4            0              4.5912154      4.5912154      0.07181302     4.5912154    
     14200   1.42           0              4.5814417      4.5814417      0.071617445    4.5814417    
     14400   1.44           0              4.638018       4.638018       0.071655767    4.638018     
     14600   1.46           0              4.6474159      4.6474159      0.070078139    4.6474159    
     14800   1.48           0              4.6051712      4.6051712      0.069521289    4.6051712    
     15000   1.5            0              4.4977651      4.4977651      0.07029298     4.4977651    
     15200   1.52           0              4.4886873      4.4886873      0.070859399    4.4886873    
     15400   1.54           0              4.5737349      4.5737349      0.070242304    4.5737349    
     15600   1.56           0              4.5425241      4.5425241      0.067419404    4.5425241    
     15800   1.58           0              4.4339793      4.4339793      0.066718627    4.4339793    
     16000   1.6            0              4.5717351      4.5717351      0.06765784     4.5717351    
     16200   1.62           0              4.508726       4.508726       0.067649751    4.508726     
     16400   1.64           0              4.5739859      4.5739859      0.066482614    4.5739859    
     16600   1.66           0              4.5037256      4.5037256      0.065387293    4.5037256    
     16800   1.68           0              4.5775743      4.5775743      0.065277884    4.5775743    
     17000   1.7            0              4.5621131      4.5621131      0.065773396    4.5621131    
     17200   1.72           0              4.4702263      4.4702263      0.064342361    4.4702263    
     17400   1.74           0              4.4307628      4.4307628      0.062397581    4.4307628    
     17600   1.76           0              4.5103312      4.5103312      0.062526237    4.5103312    
     17800   1.78           0              4.5253968      4.5253968      0.06222654     4.5253968    
     18000   1.8            0              4.5876759      4.5876759      0.06261651     4.5876759    
     18200   1.82           0              4.7100544      4.7100544      0.062475269    4.7100544    
     18400   1.84           0              4.667558       4.667558       0.060469818    4.667558     
     18600   1.86           0              4.6482729      4.6482729      0.060652264    4.6482729    
     18800   1.88           0              4.5493083      4.5493083      0.060663998    4.5493083    
     19000   1.9            0              4.5482857      4.5482857      0.061418925    4.5482857    
     19200   1.92           0              4.6624712      4.6624712      0.063335662    4.6624712    
     19400   1.94           0              4.6986768      4.6986768      0.064691278    4.6986768    
     19600   1.96           0              4.6815174      4.6815174      0.064002354    4.6815174    
     19800   1.98           0              4.6501895      4.6501895      0.061100263    4.6501895    
     20000   2              0              4.6834809      4.6834809      0.061402059    4.6834809    
     20200   2.02           0              4.7135818      4.7135818      0.058524571    4.7135818    
     20396   2.0396         0              4.6392093      4.6392093      0.058805593    4.6392093    
Loop time of 77.7661 on 1 procs for 20000 steps with 2048 atoms

Performance: 2.222 ns/day, 10.801 hours/ns, 257.181 timesteps/s, 526.708 katom-step/s
100.0% CPU use with 1 MPI tasks x 1 OpenMP threads

MPI task timing breakdown:
Section |  min time  |  avg time  |  max time  |%varavg| %total
---------------------------------------------------------------
Pair    | 20.119     | 20.119     | 20.119     |   0.0 | 25.87
Neigh   | 0          | 0          | 0          |   0.0 |  0.00
Comm    | 0.69905    | 0.69905    | 0.69905    |   0.0 |  0.90
Output  | 0.11721    | 0.11721    | 0.11721    |   0.0 |  0.15
Modify  | 56.739     | 56.739     | 56.739     |   0.0 | 72.96
Other   |            | 0.0915     |            |       |  0.12

Nlocal:           2048 ave        2048 max        2048 min
Histogram: 1 0 0 0 0 0 0 0 0 0
Nghost:           1732 ave        1732 max        1732 min
Histogram: 1 0 0 0 0 0 0 0 0 0
Neighs:              0 ave           0 max           0 min
Histogram: 1 0 0 0 0 0 0 0 0 0
FullNghs:        24576 ave       24576 max       24576 min
Histogram: 1 0 0 0 0 0 0 0 0 0

Total # of neighbors = 24576
Ave neighs/atom = 12
Neighbor list builds = 0
Dangerous builds = 0

print           "DYNAMICS_T${runtemp}_DONE"
DYNAMICS_T25_DONE
Total wall time: 0:01:17
