LAMMPS (10 Dec 2025 - Development - patch_10Dec2025-120-ga51f9ba0e7)
OMP_NUM_THREADS environment is not set. Defaulting to 1 thread.
  using 1 OpenMP thread(s) per MPI task
# Finite-T Langevin spin-dynamics stage for the Pd/Fe/Ir(111) effective model (see
# in.pdfeir_effective.lammps for the Hamiltonian, parameters, and their provenance).
# Run via run_scan.sh, one temperature per invocation: -var runtemp <K> -var runseed <int>
#
# Segfault root cause and fix (found by bisection, 2026-08-16):
#   `fix nve/spin` + a dynamics `run` was segfaulting on the real system on every LAMMPS
#   build tried, including a from-source rebuild with the SPIN package freshly enabled
#   (10 Dec 2025 dev snapshot). Bisected on a minimal reproducer down to: LAMMPS's
#   `pair_style hybrid/overlay` segfaults during force computation whenever it wraps
#   EXACTLY TWO SPIN-package pair substyles (confirmed for spin/exchange+spin/dmi and,
#   independently, spin/exchange+spin/magelec) -- reproduces regardless of langevin/spin,
#   fix declaration order, lattice geometry/boundary, or DMI direction, and is NOT specific
#   to this system: examples/SPIN/bfo (which combines exchange+magelec+dmi, THREE
#   substyles) ships with LAMMPS and runs fine on the exact same build. Adding a third,
#   physically-inert (zero-strength) spin/magelec substyle to pad hybrid/overlay to three
#   substyles avoids the crash entirely -- verified against this real system (600-atom
#   scaled check, 500-step Langevin run, smooth non-NaN energy relaxation) before adopting
#   it here. This is a LAMMPS bug (not a modeling error); the padding is a workaround,
#   not a physics change (magelec coefficient is exactly 0).

units           metal
atom_style      spin
dimension       3
boundary        p p f
atom_modify     map array

read_restart    restart.pdfeir_T0.equil
Reading restart file ...
  restart file = 10 Dec 2025, LAMMPS = 10 Dec 2025
  restoring atom style spin from restart
  orthogonal box = (0 0 -1.3575) to (407.25 235.1259 1.3575)
  1 by 1 by 1 MPI processor grid
  restoring pair style hybrid/overlay from restart
  15000 atoms
  read_restart CPU = 0.004 seconds

variable        rnn equal 2.715
variable        j_eff_eV equal 0.00368
variable        exch_a equal v_j_eff_eV*2.718281828/4.0
variable        rc_exch equal 1.2*${rnn}
variable        rc_exch equal 1.2*2.715
variable        d_eV equal 0.00139
variable        rc_dmi equal 1.2*${rnn}
variable        rc_dmi equal 1.2*2.715
variable        k_eV equal -0.0007

# --- workaround: pad hybrid/overlay to 3 spin substyles, see note above ---
pair_style      hybrid/overlay spin/exchange ${rc_exch} spin/dmi ${rc_dmi} spin/magelec ${rc_exch}
pair_style      hybrid/overlay spin/exchange 3.258 spin/dmi ${rc_dmi} spin/magelec ${rc_exch}
pair_style      hybrid/overlay spin/exchange 3.258 spin/dmi 3.258 spin/magelec ${rc_exch}
pair_style      hybrid/overlay spin/exchange 3.258 spin/dmi 3.258 spin/magelec 3.258
pair_coeff      * * spin/exchange exchange ${rc_exch} ${exch_a} 0.0 ${rnn} offset yes
pair_coeff      * * spin/exchange exchange 3.258 ${exch_a} 0.0 ${rnn} offset yes
pair_coeff      * * spin/exchange exchange 3.258 0.00250081928176 0.0 ${rnn} offset yes
pair_coeff      * * spin/exchange exchange 3.258 0.00250081928176 0.0 2.715 offset yes
pair_coeff      * * spin/dmi dmi ${rc_dmi} ${d_eV} 0.0 0.0 1.0
pair_coeff      * * spin/dmi dmi 3.258 ${d_eV} 0.0 0.0 1.0
pair_coeff      * * spin/dmi dmi 3.258 0.00139 0.0 0.0 1.0
pair_coeff      * * spin/magelec magelec ${rc_exch} 0.0 1.0 1.0 1.0   # zero strength: workaround only
pair_coeff      * * spin/magelec magelec 3.258 0.0 1.0 1.0 1.0   

neighbor        0.3 bin
neigh_modify    every 10 check yes delay 20

fix             1 all precession/spin zeeman 0.0 0.0 0.0 1.0 anisotropy ${k_eV} 0.0 0.0 1.0
fix             1 all precession/spin zeeman 0.0 0.0 0.0 1.0 anisotropy -0.0007 0.0 0.0 1.0
fix_modify      1 energy yes
fix             2 all langevin/spin ${runtemp} 0.05 ${runseed}
fix             2 all langevin/spin 218 0.05 ${runseed}
fix             2 all langevin/spin 218 0.05 21
fix             3 all nve/spin lattice frozen

timestep        0.0001

compute         out_mag all spin
compute         outsp all property/atom spx spy spz sp
thermo_style    custom step time temp pe etotal c_out_mag[4] c_out_mag[5]
thermo          200

dump            1 all custom 500 dump_pdfeir_T${runtemp}_s${runseed}.lammpstrj type x y z c_outsp[1] c_outsp[2] c_outsp[3]
dump            1 all custom 500 dump_pdfeir_T218_s${runseed}.lammpstrj type x y z c_outsp[1] c_outsp[2] c_outsp[3]
dump            1 all custom 500 dump_pdfeir_T218_s21.lammpstrj type x y z c_outsp[1] c_outsp[2] c_outsp[3]

# Equilibrate then production sample. 20k steps @ dt=0.0001 ps = 2 ps -- short first pass;
# extend once the T_c ~214K checkpoint from the paper needs finer sampling.
run             20000

CITE-CITE-CITE-CITE-CITE-CITE-CITE-CITE-CITE-CITE-CITE-CITE-CITE

Your simulation uses code contributions which should be cited:

- fix nve/spin command: https://doi.org/10.1016/j.jcp.2018.06.042

@article{tranchida2018massively,
title={Massively Parallel Symplectic Algorithm for Coupled Magnetic Spin    Dynamics and Molecular Dynamics},
author={Tranchida, J and Plimpton, S J and Thibaudeau, P and Thompson, A P},
journal={Journal of Computational Physics},
volume={372},
pages={406--425},
year={2018},
publisher={Elsevier}
doi={10.1016/j.jcp.2018.06.042}
}

CITE-CITE-CITE-CITE-CITE-CITE-CITE-CITE-CITE-CITE-CITE-CITE-CITE

Generated 0 of 0 mixed pair_coeff terms from geometric mixing rule
Neighbor list info ...
  update: every = 10 steps, delay = 20 steps, check = yes
  max neighbors/atom: 2000, page size: 100000
  master list distance cutoff = 3.558
  ghost atom cutoff = 3.558
  binsize = 1.779, bins = 229 133 2
  3 neighbor lists, perpetual/occasional/extra = 3 0 0
  (1) pair spin/exchange, perpetual
      attributes: full, newton on
      pair build: full/bin/atomonly
      stencil: full/bin/3d
      bin: standard
  (2) pair spin/dmi, perpetual, copy from (1)
      attributes: full, newton on
      pair build: copy
      stencil: none
      bin: none
  (3) pair spin/magelec, perpetual, copy from (1)
      attributes: full, newton on
      pair build: copy
      stencil: none
      bin: none
WARNING: Dump 1 includes no atom IDs and is not sorted by ID. This may complicate post-processing tasks or visualization (src/dump.cpp:220)
Per MPI rank memory allocation (min/avg/max) = 6.591 | 6.591 | 6.591 Mbytes
   Step          Time           Temp          PotEng         TotEng      c_out_mag[4]   c_out_mag[5] 
      2522   0.2522         0             -1.0275171     -1.0275171      0.030922721   -1.0275171    
      2600   0.26           0              6.3229583      6.3229583      0.030269883    6.3229583    
      2800   0.28           0              22.958307      22.958307      0.03125209     22.958307    
      3000   0.3            0              37.243005      37.243005      0.031054085    37.243005    
      3200   0.32           0              48.938276      48.938276      0.029060885    48.938276    
      3400   0.34           0              58.882722      58.882722      0.029947882    58.882722    
      3600   0.36           0              67.67338       67.67338       0.029787923    67.67338     
      3800   0.38           0              75.467676      75.467676      0.02537754     75.467676    
      4000   0.4            0              82.927268      82.927268      0.02409191     82.927268    
      4200   0.42           0              89.493618      89.493618      0.024710272    89.493618    
      4400   0.44           0              95.157088      95.157088      0.021888275    95.157088    
      4600   0.46           0              100.04161      100.04161      0.01991163     100.04161    
      4800   0.48           0              104.90418      104.90418      0.020156882    104.90418    
      5000   0.5            0              109.00708      109.00708      0.015979268    109.00708    
      5200   0.52           0              112.67896      112.67896      0.014970111    112.67896    
      5400   0.54           0              115.61056      115.61056      0.015007865    115.61056    
      5600   0.56           0              119.08596      119.08596      0.014289085    119.08596    
      5800   0.58           0              121.30976      121.30976      0.016487494    121.30976    
      6000   0.6            0              124.01484      124.01484      0.015849991    124.01484    
      6200   0.62           0              126.73264      126.73264      0.01280299     126.73264    
      6400   0.64           0              128.95977      128.95977      0.012439182    128.95977    
      6600   0.66           0              131.22993      131.22993      0.011376296    131.22993    
      6800   0.68           0              132.97533      132.97533      0.011831641    132.97533    
      7000   0.7            0              134.32477      134.32477      0.010459715    134.32477    
      7200   0.72           0              136.32873      136.32873      0.011778386    136.32873    
      7400   0.74           0              137.70337      137.70337      0.012870539    137.70337    
      7600   0.76           0              139.11936      139.11936      0.012358549    139.11936    
      7800   0.78           0              140.10842      140.10842      0.012911077    140.10842    
      8000   0.8            0              141.42144      141.42144      0.011411748    141.42144    
      8200   0.82           0              142.0684       142.0684       0.0080164683   142.0684     
      8400   0.84           0              142.94443      142.94443      0.0092234947   142.94443    
      8600   0.86           0              144.10824      144.10824      0.0070524499   144.10824    
      8800   0.88           0              144.87579      144.87579      0.0096651212   144.87579    
      9000   0.9            0              145.59114      145.59114      0.0097941968   145.59114    
      9200   0.92           0              146.50801      146.50801      0.0094050192   146.50801    
      9400   0.94           0              146.507        146.507        0.0094418721   146.507      
      9600   0.96           0              147.47767      147.47767      0.0079886348   147.47767    
      9800   0.98           0              148.01739      148.01739      0.0059281923   148.01739    
     10000   1              0              149.10366      149.10366      0.0053505472   149.10366    
     10200   1.02           0              149.49856      149.49856      0.0057072901   149.49856    
     10400   1.04           0              150.15946      150.15946      0.0060541837   150.15946    
     10600   1.06           0              150.49696      150.49696      0.0075784389   150.49696    
     10800   1.08           0              150.59539      150.59539      0.007229735    150.59539    
     11000   1.1            0              151.02358      151.02358      0.0072262353   151.02358    
     11200   1.12           0              151.33557      151.33557      0.0067102728   151.33557    
     11400   1.14           0              151.86869      151.86869      0.0061998663   151.86869    
     11600   1.16           0              152.31973      152.31973      0.0058766974   152.31973    
     11800   1.18           0              152.82154      152.82154      0.0055827324   152.82154    
     12000   1.2            0              152.99636      152.99636      0.0055714328   152.99636    
     12200   1.22           0              153.30094      153.30094      0.0035507613   153.30094    
     12400   1.24           0              153.26906      153.26906      0.004714017    153.26906    
     12600   1.26           0              153.8008       153.8008       0.0058004471   153.8008     
     12800   1.28           0              154.37195      154.37195      0.0078070803   154.37195    
     13000   1.3            0              154.15995      154.15995      0.0068193347   154.15995    
     13200   1.32           0              154.17784      154.17784      0.006089872    154.17784    
     13400   1.34           0              154.69485      154.69485      0.0073944956   154.69485    
     13600   1.36           0              154.61714      154.61714      0.0099514694   154.61714    
     13800   1.38           0              154.60565      154.60565      0.0085193758   154.60565    
     14000   1.4            0              154.74841      154.74841      0.0090931286   154.74841    
     14200   1.42           0              154.78863      154.78863      0.011448991    154.78863    
     14400   1.44           0              155.25469      155.25469      0.011042802    155.25469    
     14600   1.46           0              155.4636       155.4636       0.010431605    155.4636     
     14800   1.48           0              155.2704       155.2704       0.0097792648   155.2704     
     15000   1.5            0              155.66701      155.66701      0.0086563668   155.66701    
     15200   1.52           0              155.44606      155.44606      0.0085395777   155.44606    
     15400   1.54           0              155.13212      155.13212      0.0097016032   155.13212    
     15600   1.56           0              155.00592      155.00592      0.0079747124   155.00592    
     15800   1.58           0              154.88997      154.88997      0.0084074379   154.88997    
     16000   1.6            0              154.70099      154.70099      0.010492604    154.70099    
     16200   1.62           0              154.75865      154.75865      0.0085871852   154.75865    
     16400   1.64           0              154.86927      154.86927      0.0090388625   154.86927    
     16600   1.66           0              154.89301      154.89301      0.0093654185   154.89301    
     16800   1.68           0              155.1987       155.1987       0.011333574    155.1987     
     17000   1.7            0              155.23386      155.23386      0.01329999     155.23386    
     17200   1.72           0              155.04913      155.04913      0.012733611    155.04913    
     17400   1.74           0              155.14278      155.14278      0.01613126     155.14278    
     17600   1.76           0              155.08842      155.08842      0.014296676    155.08842    
     17800   1.78           0              154.85468      154.85468      0.014965353    154.85468    
     18000   1.8            0              154.86628      154.86628      0.015306016    154.86628    
     18200   1.82           0              154.92933      154.92933      0.01583176     154.92933    
     18400   1.84           0              154.84394      154.84394      0.018697064    154.84394    
     18600   1.86           0              154.93748      154.93748      0.020771051    154.93748    
     18800   1.88           0              154.9106       154.9106       0.017879458    154.9106     
     19000   1.9            0              154.82525      154.82525      0.016872617    154.82525    
     19200   1.92           0              154.555        154.555        0.01744894     154.555      
     19400   1.94           0              154.77348      154.77348      0.017557088    154.77348    
     19600   1.96           0              154.91826      154.91826      0.017696075    154.91826    
     19800   1.98           0              155.14065      155.14065      0.017120631    155.14065    
     20000   2              0              154.8643       154.8643       0.013206333    154.8643     
     20200   2.02           0              154.71108      154.71108      0.015097973    154.71108    
     20400   2.04           0              154.50776      154.50776      0.015108782    154.50776    
     20600   2.06           0              154.50024      154.50024      0.014690815    154.50024    
     20800   2.08           0              154.5194       154.5194       0.012563806    154.5194     
     21000   2.1            0              154.66048      154.66048      0.011747637    154.66048    
     21200   2.12           0              154.97804      154.97804      0.014752686    154.97804    
     21400   2.14           0              154.91195      154.91195      0.012504801    154.91195    
     21600   2.16           0              154.73005      154.73005      0.012091582    154.73005    
     21800   2.18           0              154.58855      154.58855      0.013138734    154.58855    
     22000   2.2            0              154.63495      154.63495      0.014191218    154.63495    
     22200   2.22           0              154.93218      154.93218      0.01237933     154.93218    
     22400   2.24           0              154.77253      154.77253      0.0088300986   154.77253    
     22522   2.2522         0              154.52581      154.52581      0.0076318748   154.52581    
Loop time of 590.413 on 1 procs for 20000 steps with 15000 atoms

Performance: 0.293 ns/day, 82.002 hours/ns, 33.875 timesteps/s, 508.119 katom-step/s
100.0% CPU use with 1 MPI tasks x 1 OpenMP threads

MPI task timing breakdown:
Section |  min time  |  avg time  |  max time  |%varavg| %total
---------------------------------------------------------------
Pair    | 147.63     | 147.63     | 147.63     |   0.0 | 25.00
Neigh   | 0          | 0          | 0          |   0.0 |  0.00
Comm    | 0.53316    | 0.53316    | 0.53316    |   0.0 |  0.09
Output  | 0.90007    | 0.90007    | 0.90007    |   0.0 |  0.15
Modify  | 440        | 440        | 440        |   0.0 | 74.52
Other   |            | 1.348      |            |       |  0.23

Nlocal:          15000 ave       15000 max       15000 min
Histogram: 1 0 0 0 0 0 0 0 0 0
Nghost:            707 ave         707 max         707 min
Histogram: 1 0 0 0 0 0 0 0 0 0
Neighs:              0 ave           0 max           0 min
Histogram: 1 0 0 0 0 0 0 0 0 0
FullNghs:        90000 ave       90000 max       90000 min
Histogram: 1 0 0 0 0 0 0 0 0 0

Total # of neighbors = 90000
Ave neighs/atom = 6
Neighbor list builds = 0
Dangerous builds = 0

print           "DYNAMICS_T${runtemp}_DONE"
DYNAMICS_T218_DONE
Total wall time: 0:09:50
