LAMMPS (10 Dec 2025 - Development - patch_10Dec2025-120-ga51f9ba0e7)
OMP_NUM_THREADS environment is not set. Defaulting to 1 thread.
  using 1 OpenMP thread(s) per MPI task
# Finite-T Langevin spin-dynamics stage for the Pd/Fe/Ir(111) effective model (see
# in.pdfeir_effective.lammps for the Hamiltonian, parameters, and their provenance).
# Run via run_scan.sh, one temperature per invocation: -var runtemp <K> -var runseed <int>
#
# Segfault root cause and fix (found by bisection, 2026-08-16):
#   `fix nve/spin` + a dynamics `run` was segfaulting on the real system on every LAMMPS
#   build tried, including a from-source rebuild with the SPIN package freshly enabled
#   (10 Dec 2025 dev snapshot). Bisected on a minimal reproducer down to: LAMMPS's
#   `pair_style hybrid/overlay` segfaults during force computation whenever it wraps
#   EXACTLY TWO SPIN-package pair substyles (confirmed for spin/exchange+spin/dmi and,
#   independently, spin/exchange+spin/magelec) -- reproduces regardless of langevin/spin,
#   fix declaration order, lattice geometry/boundary, or DMI direction, and is NOT specific
#   to this system: examples/SPIN/bfo (which combines exchange+magelec+dmi, THREE
#   substyles) ships with LAMMPS and runs fine on the exact same build. Adding a third,
#   physically-inert (zero-strength) spin/magelec substyle to pad hybrid/overlay to three
#   substyles avoids the crash entirely -- verified against this real system (600-atom
#   scaled check, 500-step Langevin run, smooth non-NaN energy relaxation) before adopting
#   it here. This is a LAMMPS bug (not a modeling error); the padding is a workaround,
#   not a physics change (magelec coefficient is exactly 0).

units           metal
atom_style      spin
dimension       3
boundary        p p f
atom_modify     map array

read_restart    restart.pdfeir_T0.equil
Reading restart file ...
  restart file = 10 Dec 2025, LAMMPS = 10 Dec 2025
  restoring atom style spin from restart
  orthogonal box = (0 0 -1.3575) to (407.25 235.1259 1.3575)
  1 by 1 by 1 MPI processor grid
  restoring pair style hybrid/overlay from restart
  15000 atoms
  read_restart CPU = 0.003 seconds

variable        rnn equal 2.715
variable        j_eff_eV equal 0.00368
variable        exch_a equal v_j_eff_eV*2.718281828/4.0
variable        rc_exch equal 1.2*${rnn}
variable        rc_exch equal 1.2*2.715
variable        d_eV equal 0.00139
variable        rc_dmi equal 1.2*${rnn}
variable        rc_dmi equal 1.2*2.715
variable        k_eV equal -0.0007

# --- workaround: pad hybrid/overlay to 3 spin substyles, see note above ---
pair_style      hybrid/overlay spin/exchange ${rc_exch} spin/dmi ${rc_dmi} spin/magelec ${rc_exch}
pair_style      hybrid/overlay spin/exchange 3.258 spin/dmi ${rc_dmi} spin/magelec ${rc_exch}
pair_style      hybrid/overlay spin/exchange 3.258 spin/dmi 3.258 spin/magelec ${rc_exch}
pair_style      hybrid/overlay spin/exchange 3.258 spin/dmi 3.258 spin/magelec 3.258
pair_coeff      * * spin/exchange exchange ${rc_exch} ${exch_a} 0.0 ${rnn} offset yes
pair_coeff      * * spin/exchange exchange 3.258 ${exch_a} 0.0 ${rnn} offset yes
pair_coeff      * * spin/exchange exchange 3.258 0.00250081928176 0.0 ${rnn} offset yes
pair_coeff      * * spin/exchange exchange 3.258 0.00250081928176 0.0 2.715 offset yes
pair_coeff      * * spin/dmi dmi ${rc_dmi} ${d_eV} 0.0 0.0 1.0
pair_coeff      * * spin/dmi dmi 3.258 ${d_eV} 0.0 0.0 1.0
pair_coeff      * * spin/dmi dmi 3.258 0.00139 0.0 0.0 1.0
pair_coeff      * * spin/magelec magelec ${rc_exch} 0.0 1.0 1.0 1.0   # zero strength: workaround only
pair_coeff      * * spin/magelec magelec 3.258 0.0 1.0 1.0 1.0   

neighbor        0.3 bin
neigh_modify    every 10 check yes delay 20

fix             1 all precession/spin zeeman 0.0 0.0 0.0 1.0 anisotropy ${k_eV} 0.0 0.0 1.0
fix             1 all precession/spin zeeman 0.0 0.0 0.0 1.0 anisotropy -0.0007 0.0 0.0 1.0
fix_modify      1 energy yes
fix             2 all langevin/spin ${runtemp} 0.05 ${runseed}
fix             2 all langevin/spin 210 0.05 ${runseed}
fix             2 all langevin/spin 210 0.05 42
fix             3 all nve/spin lattice frozen

timestep        0.0001

compute         out_mag all spin
compute         outsp all property/atom spx spy spz sp
thermo_style    custom step time temp pe etotal c_out_mag[4] c_out_mag[5]
thermo          200

dump            1 all custom 500 dump_pdfeir_T${runtemp}_s${runseed}.lammpstrj type x y z c_outsp[1] c_outsp[2] c_outsp[3]
dump            1 all custom 500 dump_pdfeir_T210_s${runseed}.lammpstrj type x y z c_outsp[1] c_outsp[2] c_outsp[3]
dump            1 all custom 500 dump_pdfeir_T210_s42.lammpstrj type x y z c_outsp[1] c_outsp[2] c_outsp[3]

# Equilibrate then production sample. 20k steps @ dt=0.0001 ps = 2 ps -- short first pass;
# extend once the T_c ~214K checkpoint from the paper needs finer sampling.
run             20000

CITE-CITE-CITE-CITE-CITE-CITE-CITE-CITE-CITE-CITE-CITE-CITE-CITE

Your simulation uses code contributions which should be cited:

- fix nve/spin command: https://doi.org/10.1016/j.jcp.2018.06.042

@article{tranchida2018massively,
title={Massively Parallel Symplectic Algorithm for Coupled Magnetic Spin    Dynamics and Molecular Dynamics},
author={Tranchida, J and Plimpton, S J and Thibaudeau, P and Thompson, A P},
journal={Journal of Computational Physics},
volume={372},
pages={406--425},
year={2018},
publisher={Elsevier}
doi={10.1016/j.jcp.2018.06.042}
}

CITE-CITE-CITE-CITE-CITE-CITE-CITE-CITE-CITE-CITE-CITE-CITE-CITE

Generated 0 of 0 mixed pair_coeff terms from geometric mixing rule
Neighbor list info ...
  update: every = 10 steps, delay = 20 steps, check = yes
  max neighbors/atom: 2000, page size: 100000
  master list distance cutoff = 3.558
  ghost atom cutoff = 3.558
  binsize = 1.779, bins = 229 133 2
  3 neighbor lists, perpetual/occasional/extra = 3 0 0
  (1) pair spin/exchange, perpetual
      attributes: full, newton on
      pair build: full/bin/atomonly
      stencil: full/bin/3d
      bin: standard
  (2) pair spin/dmi, perpetual, copy from (1)
      attributes: full, newton on
      pair build: copy
      stencil: none
      bin: none
  (3) pair spin/magelec, perpetual, copy from (1)
      attributes: full, newton on
      pair build: copy
      stencil: none
      bin: none
WARNING: Dump 1 includes no atom IDs and is not sorted by ID. This may complicate post-processing tasks or visualization (src/dump.cpp:220)
Per MPI rank memory allocation (min/avg/max) = 6.591 | 6.591 | 6.591 Mbytes
   Step          Time           Temp          PotEng         TotEng      c_out_mag[4]   c_out_mag[5] 
      2522   0.2522         0             -1.0275171     -1.0275171      0.030922721   -1.0275171    
      2600   0.26           0              5.9269721      5.9269721      0.030480488    5.9269721    
      2800   0.28           0              21.834996      21.834996      0.028609421    21.834996    
      3000   0.3            0              35.216189      35.216189      0.028041371    35.216189    
      3200   0.32           0              46.557071      46.557071      0.025999077    46.557071    
      3400   0.34           0              56.404811      56.404811      0.025250309    56.404811    
      3600   0.36           0              65.124084      65.124084      0.024911808    65.124084    
      3800   0.38           0              73.060001      73.060001      0.025592774    73.060001    
      4000   0.4            0              80.032782      80.032782      0.025310837    80.032782    
      4200   0.42           0              87.331046      87.331046      0.025702402    87.331046    
      4400   0.44           0              92.299964      92.299964      0.02422443     92.299964    
      4600   0.46           0              97.328112      97.328112      0.020812744    97.328112    
      4800   0.48           0              102.36017      102.36017      0.02154549     102.36017    
      5000   0.5            0              106.47432      106.47432      0.019723832    106.47432    
      5200   0.52           0              110.41543      110.41543      0.020379709    110.41543    
      5400   0.54           0              113.79752      113.79752      0.019216675    113.79752    
      5600   0.56           0              117.37927      117.37927      0.020365552    117.37927    
      5800   0.58           0              120.18096      120.18096      0.01824882     120.18096    
      6000   0.6            0              122.27204      122.27204      0.017354438    122.27204    
      6200   0.62           0              124.54175      124.54175      0.017733752    124.54175    
      6400   0.64           0              126.81159      126.81159      0.017595089    126.81159    
      6600   0.66           0              129.01696      129.01696      0.017974621    129.01696    
      6800   0.68           0              130.77316      130.77316      0.018178064    130.77316    
      7000   0.7            0              132.87794      132.87794      0.016509997    132.87794    
      7200   0.72           0              134.55673      134.55673      0.017357037    134.55673    
      7400   0.74           0              136.17508      136.17508      0.015260604    136.17508    
      7600   0.76           0              137.97401      137.97401      0.013119282    137.97401    
      7800   0.78           0              139.10551      139.10551      0.011984437    139.10551    
      8000   0.8            0              140.15279      140.15279      0.011311795    140.15279    
      8200   0.82           0              141.09096      141.09096      0.0090313116   141.09096    
      8400   0.84           0              141.94752      141.94752      0.0089537586   141.94752    
      8600   0.86           0              143.05987      143.05987      0.0072893643   143.05987    
      8800   0.88           0              143.68662      143.68662      0.0083327266   143.68662    
      9000   0.9            0              144.25508      144.25508      0.0088902896   144.25508    
      9200   0.92           0              145.14283      145.14283      0.0085479932   145.14283    
      9400   0.94           0              145.70873      145.70873      0.0066636373   145.70873    
      9600   0.96           0              146.5859       146.5859       0.0053485154   146.5859     
      9800   0.98           0              147.58995      147.58995      0.0057277588   147.58995    
     10000   1              0              148.14861      148.14861      0.0060904124   148.14861    
     10200   1.02           0              148.67127      148.67127      0.0052976091   148.67127    
     10400   1.04           0              149.14042      149.14042      0.0070466967   149.14042    
     10600   1.06           0              149.43288      149.43288      0.0053407986   149.43288    
     10800   1.08           0              149.88565      149.88565      0.0051765662   149.88565    
     11000   1.1            0              150.47759      150.47759      0.0032897734   150.47759    
     11200   1.12           0              150.96435      150.96435      0.0042820422   150.96435    
     11400   1.14           0              151.23176      151.23176      0.0015392286   151.23176    
     11600   1.16           0              151.14298      151.14298      0.0028778557   151.14298    
     11800   1.18           0              151.26057      151.26057      0.0035098437   151.26057    
     12000   1.2            0              151.37811      151.37811      0.0023749641   151.37811    
     12200   1.22           0              151.95852      151.95852      0.004011007    151.95852    
     12400   1.24           0              152.28158      152.28158      0.0040087035   152.28158    
     12600   1.26           0              152.86017      152.86017      0.005289113    152.86017    
     12800   1.28           0              152.65964      152.65964      0.006079952    152.65964    
     13000   1.3            0              152.74151      152.74151      0.0063799209   152.74151    
     13200   1.32           0              152.7753       152.7753       0.008895768    152.7753     
     13400   1.34           0              152.65967      152.65967      0.0095038363   152.65967    
     13600   1.36           0              152.76912      152.76912      0.011202206    152.76912    
     13800   1.38           0              153.25747      153.25747      0.012048815    153.25747    
     14000   1.4            0              153.32291      153.32291      0.01195068     153.32291    
     14200   1.42           0              152.92602      152.92602      0.012224231    152.92602    
     14400   1.44           0              153.15292      153.15292      0.0089473784   153.15292    
     14600   1.46           0              153.1843       153.1843       0.0064784276   153.1843     
     14800   1.48           0              153.18972      153.18972      0.0056388588   153.18972    
     15000   1.5            0              153.3523       153.3523       0.0055518113   153.3523     
     15200   1.52           0              153.37408      153.37408      0.0033650866   153.37408    
     15400   1.54           0              153.44851      153.44851      0.0036237241   153.44851    
     15600   1.56           0              153.80962      153.80962      0.0045525845   153.80962    
     15800   1.58           0              153.87978      153.87978      0.0056587948   153.87978    
     16000   1.6            0              153.79673      153.79673      0.0052753431   153.79673    
     16200   1.62           0              153.98363      153.98363      0.0048640004   153.98363    
     16400   1.64           0              154.02284      154.02284      0.0035083825   154.02284    
     16600   1.66           0              154.4038       154.4038       0.0055999356   154.4038     
     16800   1.68           0              154.26387      154.26387      0.0098303072   154.26387    
     17000   1.7            0              154.11032      154.11032      0.013262415    154.11032    
     17200   1.72           0              153.86544      153.86544      0.012032664    153.86544    
     17400   1.74           0              154.12458      154.12458      0.011135868    154.12458    
     17600   1.76           0              154.25531      154.25531      0.014765826    154.25531    
     17800   1.78           0              154.3989       154.3989       0.0139798      154.3989     
     18000   1.8            0              154.46502      154.46502      0.010877708    154.46502    
     18200   1.82           0              155.00028      155.00028      0.01236791     155.00028    
     18400   1.84           0              154.91483      154.91483      0.014711033    154.91483    
     18600   1.86           0              154.60187      154.60187      0.017311289    154.60187    
     18800   1.88           0              154.88164      154.88164      0.017198725    154.88164    
     19000   1.9            0              154.57651      154.57651      0.016839947    154.57651    
     19200   1.92           0              154.64661      154.64661      0.0158614      154.64661    
     19400   1.94           0              154.53247      154.53247      0.014194631    154.53247    
     19600   1.96           0              154.3837       154.3837       0.01551168     154.3837     
     19800   1.98           0              154.65791      154.65791      0.015567344    154.65791    
     20000   2              0              154.55004      154.55004      0.015488327    154.55004    
     20200   2.02           0              155.12766      155.12766      0.015229211    155.12766    
     20400   2.04           0              154.90363      154.90363      0.012791901    154.90363    
     20600   2.06           0              154.74431      154.74431      0.013881265    154.74431    
     20800   2.08           0              154.86795      154.86795      0.016028069    154.86795    
     21000   2.1            0              154.79788      154.79788      0.014746341    154.79788    
     21200   2.12           0              154.80354      154.80354      0.016003455    154.80354    
     21400   2.14           0              154.66951      154.66951      0.015017718    154.66951    
     21600   2.16           0              154.72216      154.72216      0.012013034    154.72216    
     21800   2.18           0              155.11984      155.11984      0.0098278456   155.11984    
     22000   2.2            0              155.24949      155.24949      0.010328788    155.24949    
     22200   2.22           0              155.33197      155.33197      0.0092861115   155.33197    
     22400   2.24           0              155.53377      155.53377      0.0088150605   155.53377    
     22522   2.2522         0              155.41338      155.41338      0.0062810491   155.41338    
Loop time of 555.816 on 1 procs for 20000 steps with 15000 atoms

Performance: 0.311 ns/day, 77.197 hours/ns, 35.983 timesteps/s, 539.747 katom-step/s
99.9% CPU use with 1 MPI tasks x 1 OpenMP threads

MPI task timing breakdown:
Section |  min time  |  avg time  |  max time  |%varavg| %total
---------------------------------------------------------------
Pair    | 141.63     | 141.63     | 141.63     |   0.0 | 25.48
Neigh   | 0          | 0          | 0          |   0.0 |  0.00
Comm    | 1.3876     | 1.3876     | 1.3876     |   0.0 |  0.25
Output  | 0.93276    | 0.93276    | 0.93276    |   0.0 |  0.17
Modify  | 408        | 408        | 408        |   0.0 | 73.40
Other   |            | 3.875      |            |       |  0.70

Nlocal:          15000 ave       15000 max       15000 min
Histogram: 1 0 0 0 0 0 0 0 0 0
Nghost:            707 ave         707 max         707 min
Histogram: 1 0 0 0 0 0 0 0 0 0
Neighs:              0 ave           0 max           0 min
Histogram: 1 0 0 0 0 0 0 0 0 0
FullNghs:        90000 ave       90000 max       90000 min
Histogram: 1 0 0 0 0 0 0 0 0 0

Total # of neighbors = 90000
Ave neighs/atom = 6
Neighbor list builds = 0
Dangerous builds = 0

print           "DYNAMICS_T${runtemp}_DONE"
DYNAMICS_T210_DONE
Total wall time: 0:09:15
