LAMMPS (10 Dec 2025 - Development - patch_10Dec2025-120-ga51f9ba0e7)
OMP_NUM_THREADS environment is not set. Defaulting to 1 thread.
  using 1 OpenMP thread(s) per MPI task
# Finite-T Langevin spin-dynamics stage for the Pd/Fe/Ir(111) effective model (see
# in.pdfeir_effective.lammps for the Hamiltonian, parameters, and their provenance).
# Run via run_scan.sh, one temperature per invocation: -var runtemp <K> -var runseed <int>
#
# Segfault root cause and fix (found by bisection, 2026-08-16):
#   `fix nve/spin` + a dynamics `run` was segfaulting on the real system on every LAMMPS
#   build tried, including a from-source rebuild with the SPIN package freshly enabled
#   (10 Dec 2025 dev snapshot). Bisected on a minimal reproducer down to: LAMMPS's
#   `pair_style hybrid/overlay` segfaults during force computation whenever it wraps
#   EXACTLY TWO SPIN-package pair substyles (confirmed for spin/exchange+spin/dmi and,
#   independently, spin/exchange+spin/magelec) -- reproduces regardless of langevin/spin,
#   fix declaration order, lattice geometry/boundary, or DMI direction, and is NOT specific
#   to this system: examples/SPIN/bfo (which combines exchange+magelec+dmi, THREE
#   substyles) ships with LAMMPS and runs fine on the exact same build. Adding a third,
#   physically-inert (zero-strength) spin/magelec substyle to pad hybrid/overlay to three
#   substyles avoids the crash entirely -- verified against this real system (600-atom
#   scaled check, 500-step Langevin run, smooth non-NaN energy relaxation) before adopting
#   it here. This is a LAMMPS bug (not a modeling error); the padding is a workaround,
#   not a physics change (magelec coefficient is exactly 0).

units           metal
atom_style      spin
dimension       3
boundary        p p f
atom_modify     map array

read_restart    restart.pdfeir_T0.equil
Reading restart file ...
  restart file = 10 Dec 2025, LAMMPS = 10 Dec 2025
  restoring atom style spin from restart
  orthogonal box = (0 0 -1.3575) to (407.25 235.1259 1.3575)
  1 by 1 by 1 MPI processor grid
  restoring pair style hybrid/overlay from restart
  15000 atoms
  read_restart CPU = 0.004 seconds

variable        rnn equal 2.715
variable        j_eff_eV equal 0.00368
variable        exch_a equal v_j_eff_eV*2.718281828/4.0
variable        rc_exch equal 1.2*${rnn}
variable        rc_exch equal 1.2*2.715
variable        d_eV equal 0.00139
variable        rc_dmi equal 1.2*${rnn}
variable        rc_dmi equal 1.2*2.715
variable        k_eV equal -0.0007

# --- workaround: pad hybrid/overlay to 3 spin substyles, see note above ---
pair_style      hybrid/overlay spin/exchange ${rc_exch} spin/dmi ${rc_dmi} spin/magelec ${rc_exch}
pair_style      hybrid/overlay spin/exchange 3.258 spin/dmi ${rc_dmi} spin/magelec ${rc_exch}
pair_style      hybrid/overlay spin/exchange 3.258 spin/dmi 3.258 spin/magelec ${rc_exch}
pair_style      hybrid/overlay spin/exchange 3.258 spin/dmi 3.258 spin/magelec 3.258
pair_coeff      * * spin/exchange exchange ${rc_exch} ${exch_a} 0.0 ${rnn} offset yes
pair_coeff      * * spin/exchange exchange 3.258 ${exch_a} 0.0 ${rnn} offset yes
pair_coeff      * * spin/exchange exchange 3.258 0.00250081928176 0.0 ${rnn} offset yes
pair_coeff      * * spin/exchange exchange 3.258 0.00250081928176 0.0 2.715 offset yes
pair_coeff      * * spin/dmi dmi ${rc_dmi} ${d_eV} 0.0 0.0 1.0
pair_coeff      * * spin/dmi dmi 3.258 ${d_eV} 0.0 0.0 1.0
pair_coeff      * * spin/dmi dmi 3.258 0.00139 0.0 0.0 1.0
pair_coeff      * * spin/magelec magelec ${rc_exch} 0.0 1.0 1.0 1.0   # zero strength: workaround only
pair_coeff      * * spin/magelec magelec 3.258 0.0 1.0 1.0 1.0   

neighbor        0.3 bin
neigh_modify    every 10 check yes delay 20

fix             1 all precession/spin zeeman 0.0 0.0 0.0 1.0 anisotropy ${k_eV} 0.0 0.0 1.0
fix             1 all precession/spin zeeman 0.0 0.0 0.0 1.0 anisotropy -0.0007 0.0 0.0 1.0
fix_modify      1 energy yes
fix             2 all langevin/spin ${runtemp} 0.05 ${runseed}
fix             2 all langevin/spin 235 0.05 ${runseed}
fix             2 all langevin/spin 235 0.05 63
fix             3 all nve/spin lattice frozen

timestep        0.0001

compute         out_mag all spin
compute         outsp all property/atom spx spy spz sp
thermo_style    custom step time temp pe etotal c_out_mag[4] c_out_mag[5]
thermo          200

dump            1 all custom 500 dump_pdfeir_T${runtemp}_s${runseed}.lammpstrj type x y z c_outsp[1] c_outsp[2] c_outsp[3]
dump            1 all custom 500 dump_pdfeir_T235_s${runseed}.lammpstrj type x y z c_outsp[1] c_outsp[2] c_outsp[3]
dump            1 all custom 500 dump_pdfeir_T235_s63.lammpstrj type x y z c_outsp[1] c_outsp[2] c_outsp[3]

# Equilibrate then production sample. 20k steps @ dt=0.0001 ps = 2 ps -- short first pass;
# extend once the T_c ~214K checkpoint from the paper needs finer sampling.
run             20000

CITE-CITE-CITE-CITE-CITE-CITE-CITE-CITE-CITE-CITE-CITE-CITE-CITE

Your simulation uses code contributions which should be cited:

- fix nve/spin command: https://doi.org/10.1016/j.jcp.2018.06.042

@article{tranchida2018massively,
title={Massively Parallel Symplectic Algorithm for Coupled Magnetic Spin    Dynamics and Molecular Dynamics},
author={Tranchida, J and Plimpton, S J and Thibaudeau, P and Thompson, A P},
journal={Journal of Computational Physics},
volume={372},
pages={406--425},
year={2018},
publisher={Elsevier}
doi={10.1016/j.jcp.2018.06.042}
}

CITE-CITE-CITE-CITE-CITE-CITE-CITE-CITE-CITE-CITE-CITE-CITE-CITE

Generated 0 of 0 mixed pair_coeff terms from geometric mixing rule
Neighbor list info ...
  update: every = 10 steps, delay = 20 steps, check = yes
  max neighbors/atom: 2000, page size: 100000
  master list distance cutoff = 3.558
  ghost atom cutoff = 3.558
  binsize = 1.779, bins = 229 133 2
  3 neighbor lists, perpetual/occasional/extra = 3 0 0
  (1) pair spin/exchange, perpetual
      attributes: full, newton on
      pair build: full/bin/atomonly
      stencil: full/bin/3d
      bin: standard
  (2) pair spin/dmi, perpetual, copy from (1)
      attributes: full, newton on
      pair build: copy
      stencil: none
      bin: none
  (3) pair spin/magelec, perpetual, copy from (1)
      attributes: full, newton on
      pair build: copy
      stencil: none
      bin: none
WARNING: Dump 1 includes no atom IDs and is not sorted by ID. This may complicate post-processing tasks or visualization (src/dump.cpp:220)
Per MPI rank memory allocation (min/avg/max) = 6.591 | 6.591 | 6.591 Mbytes
   Step          Time           Temp          PotEng         TotEng      c_out_mag[4]   c_out_mag[5] 
      2522   0.2522         0             -1.0275171     -1.0275171      0.030922721   -1.0275171    
      2600   0.26           0              6.8053494      6.8053494      0.03115923     6.8053494    
      2800   0.28           0              24.348846      24.348846      0.027138528    24.348846    
      3000   0.3            0              39.107965      39.107965      0.024586046    39.107965    
      3200   0.32           0              51.847057      51.847057      0.021856875    51.847057    
      3400   0.34           0              62.625196      62.625196      0.02028749     62.625196    
      3600   0.36           0              72.420489      72.420489      0.019445169    72.420489    
      3800   0.38           0              80.247604      80.247604      0.0187337      80.247604    
      4000   0.4            0              87.851078      87.851078      0.019490823    87.851078    
      4200   0.42           0              94.670691      94.670691      0.019932874    94.670691    
      4400   0.44           0              100.70066      100.70066      0.022014533    100.70066    
      4600   0.46           0              105.86152      105.86152      0.024134891    105.86152    
      4800   0.48           0              110.34391      110.34391      0.020403532    110.34391    
      5000   0.5            0              115.11509      115.11509      0.015494522    115.11509    
      5200   0.52           0              118.45172      118.45172      0.015798331    118.45172    
      5400   0.54           0              121.7317       121.7317       0.014144455    121.7317     
      5600   0.56           0              124.572        124.572        0.011755031    124.572      
      5800   0.58           0              127.18531      127.18531      0.010902744    127.18531    
      6000   0.6            0              129.6451       129.6451       0.010000693    129.6451     
      6200   0.62           0              132.02399      132.02399      0.007907482    132.02399    
      6400   0.64           0              134.43074      134.43074      0.0063868439   134.43074    
      6600   0.66           0              136.42241      136.42241      0.0056494719   136.42241    
      6800   0.68           0              138.27917      138.27917      0.0049874742   138.27917    
      7000   0.7            0              139.61331      139.61331      0.007577389    139.61331    
      7200   0.72           0              140.84913      140.84913      0.0064321076   140.84913    
      7400   0.74           0              142.37413      142.37413      0.0067520559   142.37413    
      7600   0.76           0              143.53408      143.53408      0.004028393    143.53408    
      7800   0.78           0              144.85488      144.85488      0.0051051886   144.85488    
      8000   0.8            0              146.02743      146.02743      0.0052660248   146.02743    
      8200   0.82           0              146.84328      146.84328      0.0068732087   146.84328    
      8400   0.84           0              147.85203      147.85203      0.0097404877   147.85203    
      8600   0.86           0              148.48763      148.48763      0.0090236882   148.48763    
      8800   0.88           0              148.56265      148.56265      0.0082979459   148.56265    
      9000   0.9            0              149.16851      149.16851      0.0091424572   149.16851    
      9200   0.92           0              149.67496      149.67496      0.0082966177   149.67496    
      9400   0.94           0              150.03759      150.03759      0.0088474287   150.03759    
      9600   0.96           0              150.31049      150.31049      0.0069305572   150.31049    
      9800   0.98           0              150.7717       150.7717       0.0071655271   150.7717     
     10000   1              0              151.1279       151.1279       0.0085308539   151.1279     
     10200   1.02           0              151.85011      151.85011      0.0092557561   151.85011    
     10400   1.04           0              152.1292       152.1292       0.0071809173   152.1292     
     10600   1.06           0              152.44425      152.44425      0.0083025996   152.44425    
     10800   1.08           0              152.62943      152.62943      0.008428912    152.62943    
     11000   1.1            0              152.83327      152.83327      0.0089906821   152.83327    
     11200   1.12           0              153.2988       153.2988       0.0064489015   153.2988     
     11400   1.14           0              153.52729      153.52729      0.0071032574   153.52729    
     11600   1.16           0              153.8401       153.8401       0.0060845031   153.8401     
     11800   1.18           0              154.53428      154.53428      0.0067872896   154.53428    
     12000   1.2            0              154.25236      154.25236      0.0070076112   154.25236    
     12200   1.22           0              154.49504      154.49504      0.0078176565   154.49504    
     12400   1.24           0              155.25067      155.25067      0.0064816145   155.25067    
     12600   1.26           0              155.42037      155.42037      0.0074630513   155.42037    
     12800   1.28           0              155.5407       155.5407       0.0079457142   155.5407     
     13000   1.3            0              155.71697      155.71697      0.0071370085   155.71697    
     13200   1.32           0              155.58098      155.58098      0.0085948261   155.58098    
     13400   1.34           0              155.68778      155.68778      0.006444296    155.68778    
     13600   1.36           0              156.31958      156.31958      0.0076300578   156.31958    
     13800   1.38           0              156.32415      156.32415      0.0096993616   156.32415    
     14000   1.4            0              156.62183      156.62183      0.012640662    156.62183    
     14200   1.42           0              156.77037      156.77037      0.012014007    156.77037    
     14400   1.44           0              156.87004      156.87004      0.010771742    156.87004    
     14600   1.46           0              157.23204      157.23204      0.0084850953   157.23204    
     14800   1.48           0              157.50428      157.50428      0.010900337    157.50428    
     15000   1.5            0              157.16816      157.16816      0.011196612    157.16816    
     15200   1.52           0              156.86325      156.86325      0.010718023    156.86325    
     15400   1.54           0              156.5609       156.5609       0.010647058    156.5609     
     15600   1.56           0              156.69368      156.69368      0.013609159    156.69368    
     15800   1.58           0              156.90133      156.90133      0.010724586    156.90133    
     16000   1.6            0              157.00042      157.00042      0.012238107    157.00042    
     16200   1.62           0              156.77248      156.77248      0.011251788    156.77248    
     16400   1.64           0              157.00041      157.00041      0.0078666421   157.00041    
     16600   1.66           0              156.95336      156.95336      0.008838244    156.95336    
     16800   1.68           0              157.13524      157.13524      0.010551592    157.13524    
     17000   1.7            0              156.96341      156.96341      0.010182505    156.96341    
     17200   1.72           0              156.54965      156.54965      0.012662001    156.54965    
     17400   1.74           0              156.41611      156.41611      0.015069973    156.41611    
     17600   1.76           0              156.59913      156.59913      0.014882601    156.59913    
     17800   1.78           0              156.80683      156.80683      0.013569195    156.80683    
     18000   1.8            0              156.47475      156.47475      0.013562268    156.47475    
     18200   1.82           0              156.59836      156.59836      0.011168409    156.59836    
     18400   1.84           0              155.97334      155.97334      0.0079518311   155.97334    
     18600   1.86           0              155.91063      155.91063      0.0062934117   155.91063    
     18800   1.88           0              156.06308      156.06308      0.0066449376   156.06308    
     19000   1.9            0              155.75231      155.75231      0.0072121172   155.75231    
     19200   1.92           0              155.70573      155.70573      0.0090546415   155.70573    
     19400   1.94           0              155.6909       155.6909       0.010768831    155.6909     
     19600   1.96           0              155.91878      155.91878      0.012697255    155.91878    
     19800   1.98           0              155.9853       155.9853       0.013623518    155.9853     
     20000   2              0              155.97831      155.97831      0.013949634    155.97831    
     20200   2.02           0              156.50319      156.50319      0.011985787    156.50319    
     20400   2.04           0              156.27494      156.27494      0.010968131    156.27494    
     20600   2.06           0              156.82317      156.82317      0.01175575     156.82317    
     20800   2.08           0              156.54141      156.54141      0.012742358    156.54141    
     21000   2.1            0              156.65199      156.65199      0.01137259     156.65199    
     21200   2.12           0              156.36495      156.36495      0.014093182    156.36495    
     21400   2.14           0              156.6997       156.6997       0.017017922    156.6997     
     21600   2.16           0              156.78528      156.78528      0.017529186    156.78528    
     21800   2.18           0              157.11386      157.11386      0.017164777    157.11386    
     22000   2.2            0              157.27228      157.27228      0.014558084    157.27228    
     22200   2.22           0              157.24544      157.24544      0.01349077     157.24544    
     22400   2.24           0              157.1536       157.1536       0.010809799    157.1536     
     22522   2.2522         0              157.28292      157.28292      0.0081071534   157.28292    
Loop time of 525.957 on 1 procs for 20000 steps with 15000 atoms

Performance: 0.329 ns/day, 73.050 hours/ns, 38.026 timesteps/s, 570.389 katom-step/s
99.9% CPU use with 1 MPI tasks x 1 OpenMP threads

MPI task timing breakdown:
Section |  min time  |  avg time  |  max time  |%varavg| %total
---------------------------------------------------------------
Pair    | 134.2      | 134.2      | 134.2      |   0.0 | 25.52
Neigh   | 0          | 0          | 0          |   0.0 |  0.00
Comm    | 1.3983     | 1.3983     | 1.3983     |   0.0 |  0.27
Output  | 0.89618    | 0.89618    | 0.89618    |   0.0 |  0.17
Modify  | 385.49     | 385.49     | 385.49     |   0.0 | 73.29
Other   |            | 3.971      |            |       |  0.75

Nlocal:          15000 ave       15000 max       15000 min
Histogram: 1 0 0 0 0 0 0 0 0 0
Nghost:            707 ave         707 max         707 min
Histogram: 1 0 0 0 0 0 0 0 0 0
Neighs:              0 ave           0 max           0 min
Histogram: 1 0 0 0 0 0 0 0 0 0
FullNghs:        90000 ave       90000 max       90000 min
Histogram: 1 0 0 0 0 0 0 0 0 0

Total # of neighbors = 90000
Ave neighs/atom = 6
Neighbor list builds = 0
Dangerous builds = 0

print           "DYNAMICS_T${runtemp}_DONE"
DYNAMICS_T235_DONE
Total wall time: 0:08:45
