LAMMPS (10 Dec 2025 - Development - patch_10Dec2025-120-ga51f9ba0e7)
OMP_NUM_THREADS environment is not set. Defaulting to 1 thread.
  using 1 OpenMP thread(s) per MPI task
# Finite-T Langevin spin-dynamics stage for mp-754090 (Li4Fe2TeWO12), placeholder-DMI
# effective model -- see in.mp754090_effective.lammps for Hamiltonian, J derivation from
# real DFT, and the explicit "DMI is a placeholder, not DFT" caveat. Do not read physical
# conclusions (Tc, textures, chirality) off this run; it exists to get a first qualitative
# look while the real noncollinear+SOC DFT job for D is pending.
#
# Run via run_scan_parallel_mp754090.sh, one temperature/seed per invocation:
#   -var runtemp <K> -var runseed <int>
#
# Same LAMMPS-build workaround as in.pdfeir_dynamics.lammps: hybrid/overlay segfaults with
# exactly 2 spin substyles on this build, padded to 3 with a zero-strength spin/magelec term.

units           metal
atom_style      spin
dimension       3
boundary        p p p
atom_modify     map array

read_restart    restart.mp754090_T0.equil
Reading restart file ...
  restart file = 10 Dec 2025, LAMMPS = 10 Dec 2025
  restoring atom style spin from restart
  triclinic box = (0 0 0) to (86.604109 72.44143 33.758371) with tilt (47.827887 47.809739 49.151162)
WARNING: Triclinic box skew is large. LAMMPS will run inefficiently. (src/domain.cpp:221)
  1 by 1 by 1 MPI processor grid
  restoring pair style hybrid/overlay from restart
  2048 atoms
  read_restart CPU = 0.001 seconds

variable        j_eff_eV equal 0.012058385
variable        d_shell equal 5.132075
variable        exch_a equal v_j_eff_eV*2.718281828/4.0
variable        rc_exch equal 5.25
variable        d_eV equal 0.003
variable        rc_dmi equal 5.25

pair_style      hybrid/overlay spin/exchange ${rc_exch} spin/dmi ${rc_dmi} spin/magelec ${rc_exch}
pair_style      hybrid/overlay spin/exchange 5.25 spin/dmi ${rc_dmi} spin/magelec ${rc_exch}
pair_style      hybrid/overlay spin/exchange 5.25 spin/dmi 5.25 spin/magelec ${rc_exch}
pair_style      hybrid/overlay spin/exchange 5.25 spin/dmi 5.25 spin/magelec 5.25
pair_coeff      * * spin/exchange exchange ${rc_exch} ${exch_a} 0.0 ${d_shell} offset yes
pair_coeff      * * spin/exchange exchange 5.25 ${exch_a} 0.0 ${d_shell} offset yes
pair_coeff      * * spin/exchange exchange 5.25 0.00819452220513194 0.0 ${d_shell} offset yes
pair_coeff      * * spin/exchange exchange 5.25 0.00819452220513194 0.0 5.132075 offset yes
pair_coeff      * * spin/dmi dmi ${rc_dmi} ${d_eV} 0.0 0.0 1.0
pair_coeff      * * spin/dmi dmi 5.25 ${d_eV} 0.0 0.0 1.0
pair_coeff      * * spin/dmi dmi 5.25 0.003 0.0 0.0 1.0
pair_coeff      * * spin/magelec magelec ${rc_exch} 0.0 1.0 1.0 1.0   # zero strength: segfault workaround only
pair_coeff      * * spin/magelec magelec 5.25 0.0 1.0 1.0 1.0   

neighbor        0.3 bin
neigh_modify    every 10 check yes delay 20

fix             1 all precession/spin zeeman 0.0 0.0 0.0 1.0
fix_modify      1 energy yes
fix             2 all langevin/spin ${runtemp} 0.05 ${runseed}
fix             2 all langevin/spin 150 0.05 ${runseed}
fix             2 all langevin/spin 150 0.05 21
fix             3 all nve/spin lattice frozen

timestep        0.0001

compute         out_mag all spin
compute         outsp all property/atom spx spy spz sp
thermo_style    custom step time temp pe etotal c_out_mag[4] c_out_mag[5]
thermo          200

dump            1 all custom 500 dump_mp754090_T${runtemp}_s${runseed}.lammpstrj type x y z c_outsp[1] c_outsp[2] c_outsp[3]
dump            1 all custom 500 dump_mp754090_T150_s${runseed}.lammpstrj type x y z c_outsp[1] c_outsp[2] c_outsp[3]
dump            1 all custom 500 dump_mp754090_T150_s21.lammpstrj type x y z c_outsp[1] c_outsp[2] c_outsp[3]

# Coarse first pass -- 20k steps @ dt=0.0001 ps = 2 ps, same length as pdfeir's first pass.
run             20000

CITE-CITE-CITE-CITE-CITE-CITE-CITE-CITE-CITE-CITE-CITE-CITE-CITE

Your simulation uses code contributions which should be cited:

- fix nve/spin command: https://doi.org/10.1016/j.jcp.2018.06.042

@article{tranchida2018massively,
title={Massively Parallel Symplectic Algorithm for Coupled Magnetic Spin    Dynamics and Molecular Dynamics},
author={Tranchida, J and Plimpton, S J and Thibaudeau, P and Thompson, A P},
journal={Journal of Computational Physics},
volume={372},
pages={406--425},
year={2018},
publisher={Elsevier}
doi={10.1016/j.jcp.2018.06.042}
}

CITE-CITE-CITE-CITE-CITE-CITE-CITE-CITE-CITE-CITE-CITE-CITE-CITE

Generated 0 of 0 mixed pair_coeff terms from geometric mixing rule
Neighbor list info ...
  update: every = 10 steps, delay = 20 steps, check = yes
  max neighbors/atom: 2000, page size: 100000
  master list distance cutoff = 5.55
  ghost atom cutoff = 5.55
  binsize = 2.775, bins = 66 44 13
  3 neighbor lists, perpetual/occasional/extra = 3 0 0
  (1) pair spin/exchange, perpetual
      attributes: full, newton on
      pair build: full/bin/atomonly
      stencil: full/bin/3d
      bin: standard
  (2) pair spin/dmi, perpetual, copy from (1)
      attributes: full, newton on
      pair build: copy
      stencil: none
      bin: none
  (3) pair spin/magelec, perpetual, copy from (1)
      attributes: full, newton on
      pair build: copy
      stencil: none
      bin: none
WARNING: Dump 1 includes no atom IDs and is not sorted by ID. This may complicate post-processing tasks or visualization (src/dump.cpp:220)
Per MPI rank memory allocation (min/avg/max) = 5.919 | 5.919 | 5.919 Mbytes
   Step          Time           Temp          PotEng         TotEng      c_out_mag[4]   c_out_mag[5] 
       396   0.0396         0              0.16923922     0.16923922     0.071743915    0.16923922   
       400   0.04           0              0.28741028     0.28741028     0.071755998    0.28741028   
       600   0.06           0              5.2277061      5.2277061      0.071971582    5.2277061    
       800   0.08           0              9.3254086      9.3254086      0.068635991    9.3254086    
      1000   0.1            0              12.158068      12.158068      0.074079012    12.158068    
      1200   0.12           0              14.283357      14.283357      0.072364095    14.283357    
      1400   0.14           0              16.240198      16.240198      0.070783436    16.240198    
      1600   0.16           0              17.774981      17.774981      0.071385838    17.774981    
      1800   0.18           0              18.853001      18.853001      0.072142085    18.853001    
      2000   0.2            0              19.331766      19.331766      0.074588663    19.331766    
      2200   0.22           0              20.331021      20.331021      0.071829106    20.331021    
      2400   0.24           0              20.602833      20.602833      0.072078717    20.602833    
      2600   0.26           0              21.310819      21.310819      0.067092948    21.310819    
      2800   0.28           0              22.280151      22.280151      0.063132104    22.280151    
      3000   0.3            0              23.035715      23.035715      0.065522247    23.035715    
      3200   0.32           0              23.637365      23.637365      0.066734761    23.637365    
      3400   0.34           0              23.894613      23.894613      0.067422283    23.894613    
      3600   0.36           0              24.018294      24.018294      0.066502735    24.018294    
      3800   0.38           0              24.152178      24.152178      0.070482418    24.152178    
      4000   0.4            0              24.419224      24.419224      0.078080715    24.419224    
      4200   0.42           0              25.014571      25.014571      0.079892805    25.014571    
      4400   0.44           0              25.568836      25.568836      0.076070153    25.568836    
      4600   0.46           0              25.519961      25.519961      0.075802798    25.519961    
      4800   0.48           0              26.015758      26.015758      0.082725803    26.015758    
      5000   0.5            0              26.614803      26.614803      0.0815413      26.614803    
      5200   0.52           0              26.510928      26.510928      0.077725142    26.510928    
      5400   0.54           0              26.929146      26.929146      0.075676038    26.929146    
      5600   0.56           0              27.026009      27.026009      0.071794162    27.026009    
      5800   0.58           0              27.348735      27.348735      0.067651175    27.348735    
      6000   0.6            0              26.893645      26.893645      0.063693747    26.893645    
      6200   0.62           0              26.536454      26.536454      0.063677478    26.536454    
      6400   0.64           0              27.097546      27.097546      0.064657896    27.097546    
      6600   0.66           0              27.513818      27.513818      0.064661347    27.513818    
      6800   0.68           0              27.566153      27.566153      0.069667281    27.566153    
      7000   0.7            0              27.534467      27.534467      0.076780315    27.534467    
      7200   0.72           0              27.747615      27.747615      0.077973747    27.747615    
      7400   0.74           0              27.946434      27.946434      0.07766349     27.946434    
      7600   0.76           0              28.085721      28.085721      0.081227657    28.085721    
      7800   0.78           0              28.379607      28.379607      0.080737826    28.379607    
      8000   0.8            0              28.415949      28.415949      0.08462466     28.415949    
      8200   0.82           0              29.103211      29.103211      0.089020739    29.103211    
      8400   0.84           0              29.183458      29.183458      0.090404078    29.183458    
      8600   0.86           0              29.022466      29.022466      0.087902985    29.022466    
      8800   0.88           0              28.713686      28.713686      0.091769683    28.713686    
      9000   0.9            0              28.61336       28.61336       0.089278446    28.61336     
      9200   0.92           0              28.562418      28.562418      0.092269893    28.562418    
      9400   0.94           0              28.467213      28.467213      0.094030352    28.467213    
      9600   0.96           0              28.931071      28.931071      0.098099851    28.931071    
      9800   0.98           0              28.950629      28.950629      0.098810418    28.950629    
     10000   1              0              29.146869      29.146869      0.098370303    29.146869    
     10200   1.02           0              29.452571      29.452571      0.10086705     29.452571    
     10400   1.04           0              29.006757      29.006757      0.10149322     29.006757    
     10600   1.06           0              28.70729       28.70729       0.10343191     28.70729     
     10800   1.08           0              28.905415      28.905415      0.09795321     28.905415    
     11000   1.1            0              29.175423      29.175423      0.091231394    29.175423    
     11200   1.12           0              30.023951      30.023951      0.094707686    30.023951    
     11400   1.14           0              29.652882      29.652882      0.096398705    29.652882    
     11600   1.16           0              29.968307      29.968307      0.088141521    29.968307    
     11800   1.18           0              29.870192      29.870192      0.08721638     29.870192    
     12000   1.2            0              30.010515      30.010515      0.084656053    30.010515    
     12200   1.22           0              29.969381      29.969381      0.082297474    29.969381    
     12400   1.24           0              29.612903      29.612903      0.081641285    29.612903    
     12600   1.26           0              29.527379      29.527379      0.08034667     29.527379    
     12800   1.28           0              29.887592      29.887592      0.075976529    29.887592    
     13000   1.3            0              29.656952      29.656952      0.073776585    29.656952    
     13200   1.32           0              29.924094      29.924094      0.077610016    29.924094    
     13400   1.34           0              29.931319      29.931319      0.078499332    29.931319    
     13600   1.36           0              30.001293      30.001293      0.07891073     30.001293    
     13800   1.38           0              30.033583      30.033583      0.07639818     30.033583    
     14000   1.4            0              29.934375      29.934375      0.081478868    29.934375    
     14200   1.42           0              30.146487      30.146487      0.084807414    30.146487    
     14400   1.44           0              30.378117      30.378117      0.08760273     30.378117    
     14600   1.46           0              30.466188      30.466188      0.085349607    30.466188    
     14800   1.48           0              30.252089      30.252089      0.081999292    30.252089    
     15000   1.5            0              30.788852      30.788852      0.081303044    30.788852    
     15200   1.52           0              30.325521      30.325521      0.078034963    30.325521    
     15400   1.54           0              30.446142      30.446142      0.081388179    30.446142    
     15600   1.56           0              30.669251      30.669251      0.068606702    30.669251    
     15800   1.58           0              30.187494      30.187494      0.06927803     30.187494    
     16000   1.6            0              29.900063      29.900063      0.06922897     29.900063    
     16200   1.62           0              29.842799      29.842799      0.066274919    29.842799    
     16400   1.64           0              29.619685      29.619685      0.070130547    29.619685    
     16600   1.66           0              29.864532      29.864532      0.071651965    29.864532    
     16800   1.68           0              29.912468      29.912468      0.071184159    29.912468    
     17000   1.7            0              29.55341       29.55341       0.073036219    29.55341     
     17200   1.72           0              29.681554      29.681554      0.074877668    29.681554    
     17400   1.74           0              29.112525      29.112525      0.06966171     29.112525    
     17600   1.76           0              29.328531      29.328531      0.0678451      29.328531    
     17800   1.78           0              29.408386      29.408386      0.071149675    29.408386    
     18000   1.8            0              29.555266      29.555266      0.068813077    29.555266    
     18200   1.82           0              29.415354      29.415354      0.062935937    29.415354    
     18400   1.84           0              29.56167       29.56167       0.063155547    29.56167     
     18600   1.86           0              29.701116      29.701116      0.058590383    29.701116    
     18800   1.88           0              29.662358      29.662358      0.059257967    29.662358    
     19000   1.9            0              29.510778      29.510778      0.056849474    29.510778    
     19200   1.92           0              29.835014      29.835014      0.057306343    29.835014    
     19400   1.94           0              29.652243      29.652243      0.061297087    29.652243    
     19600   1.96           0              29.825348      29.825348      0.069396464    29.825348    
     19800   1.98           0              29.562412      29.562412      0.068016062    29.562412    
     20000   2              0              29.682872      29.682872      0.069933902    29.682872    
     20200   2.02           0              30.093955      30.093955      0.077043905    30.093955    
     20396   2.0396         0              29.814247      29.814247      0.07624432     29.814247    
Loop time of 79.9194 on 1 procs for 20000 steps with 2048 atoms

Performance: 2.162 ns/day, 11.100 hours/ns, 250.252 timesteps/s, 512.517 katom-step/s
99.9% CPU use with 1 MPI tasks x 1 OpenMP threads

MPI task timing breakdown:
Section |  min time  |  avg time  |  max time  |%varavg| %total
---------------------------------------------------------------
Pair    | 20.659     | 20.659     | 20.659     |   0.0 | 25.85
Neigh   | 0          | 0          | 0          |   0.0 |  0.00
Comm    | 0.68707    | 0.68707    | 0.68707    |   0.0 |  0.86
Output  | 0.11694    | 0.11694    | 0.11694    |   0.0 |  0.15
Modify  | 58.363     | 58.363     | 58.363     |   0.0 | 73.03
Other   |            | 0.09345    |            |       |  0.12

Nlocal:           2048 ave        2048 max        2048 min
Histogram: 1 0 0 0 0 0 0 0 0 0
Nghost:           1732 ave        1732 max        1732 min
Histogram: 1 0 0 0 0 0 0 0 0 0
Neighs:              0 ave           0 max           0 min
Histogram: 1 0 0 0 0 0 0 0 0 0
FullNghs:        24576 ave       24576 max       24576 min
Histogram: 1 0 0 0 0 0 0 0 0 0

Total # of neighbors = 24576
Ave neighs/atom = 12
Neighbor list builds = 0
Dangerous builds = 0

print           "DYNAMICS_T${runtemp}_DONE"
DYNAMICS_T150_DONE
Total wall time: 0:01:19
