LAMMPS (10 Dec 2025 - Development - patch_10Dec2025-120-ga51f9ba0e7)
OMP_NUM_THREADS environment is not set. Defaulting to 1 thread.
  using 1 OpenMP thread(s) per MPI task
# Finite-T Langevin spin-dynamics stage for the Pd/Fe/Ir(111) effective model (see
# in.pdfeir_effective.lammps for the Hamiltonian, parameters, and their provenance).
# Run via run_scan.sh, one temperature per invocation: -var runtemp <K> -var runseed <int>
#
# Segfault root cause and fix (found by bisection, 2026-08-16):
#   `fix nve/spin` + a dynamics `run` was segfaulting on the real system on every LAMMPS
#   build tried, including a from-source rebuild with the SPIN package freshly enabled
#   (10 Dec 2025 dev snapshot). Bisected on a minimal reproducer down to: LAMMPS's
#   `pair_style hybrid/overlay` segfaults during force computation whenever it wraps
#   EXACTLY TWO SPIN-package pair substyles (confirmed for spin/exchange+spin/dmi and,
#   independently, spin/exchange+spin/magelec) -- reproduces regardless of langevin/spin,
#   fix declaration order, lattice geometry/boundary, or DMI direction, and is NOT specific
#   to this system: examples/SPIN/bfo (which combines exchange+magelec+dmi, THREE
#   substyles) ships with LAMMPS and runs fine on the exact same build. Adding a third,
#   physically-inert (zero-strength) spin/magelec substyle to pad hybrid/overlay to three
#   substyles avoids the crash entirely -- verified against this real system (600-atom
#   scaled check, 500-step Langevin run, smooth non-NaN energy relaxation) before adopting
#   it here. This is a LAMMPS bug (not a modeling error); the padding is a workaround,
#   not a physics change (magelec coefficient is exactly 0).

units           metal
atom_style      spin
dimension       3
boundary        p p f
atom_modify     map array

read_restart    restart.pdfeir_T0.equil
Reading restart file ...
  restart file = 10 Dec 2025, LAMMPS = 10 Dec 2025
  restoring atom style spin from restart
  orthogonal box = (0 0 -1.3575) to (407.25 235.1259 1.3575)
  1 by 1 by 1 MPI processor grid
  restoring pair style hybrid/overlay from restart
  15000 atoms
  read_restart CPU = 0.009 seconds

variable        rnn equal 2.715
variable        j_eff_eV equal 0.00368
variable        exch_a equal v_j_eff_eV*2.718281828/4.0
variable        rc_exch equal 1.2*${rnn}
variable        rc_exch equal 1.2*2.715
variable        d_eV equal 0.00139
variable        rc_dmi equal 1.2*${rnn}
variable        rc_dmi equal 1.2*2.715
variable        k_eV equal -0.0007

# --- workaround: pad hybrid/overlay to 3 spin substyles, see note above ---
pair_style      hybrid/overlay spin/exchange ${rc_exch} spin/dmi ${rc_dmi} spin/magelec ${rc_exch}
pair_style      hybrid/overlay spin/exchange 3.258 spin/dmi ${rc_dmi} spin/magelec ${rc_exch}
pair_style      hybrid/overlay spin/exchange 3.258 spin/dmi 3.258 spin/magelec ${rc_exch}
pair_style      hybrid/overlay spin/exchange 3.258 spin/dmi 3.258 spin/magelec 3.258
pair_coeff      * * spin/exchange exchange ${rc_exch} ${exch_a} 0.0 ${rnn} offset yes
pair_coeff      * * spin/exchange exchange 3.258 ${exch_a} 0.0 ${rnn} offset yes
pair_coeff      * * spin/exchange exchange 3.258 0.00250081928176 0.0 ${rnn} offset yes
pair_coeff      * * spin/exchange exchange 3.258 0.00250081928176 0.0 2.715 offset yes
pair_coeff      * * spin/dmi dmi ${rc_dmi} ${d_eV} 0.0 0.0 1.0
pair_coeff      * * spin/dmi dmi 3.258 ${d_eV} 0.0 0.0 1.0
pair_coeff      * * spin/dmi dmi 3.258 0.00139 0.0 0.0 1.0
pair_coeff      * * spin/magelec magelec ${rc_exch} 0.0 1.0 1.0 1.0   # zero strength: workaround only
pair_coeff      * * spin/magelec magelec 3.258 0.0 1.0 1.0 1.0   

neighbor        0.3 bin
neigh_modify    every 10 check yes delay 20

fix             1 all precession/spin zeeman 0.0 0.0 0.0 1.0 anisotropy ${k_eV} 0.0 0.0 1.0
fix             1 all precession/spin zeeman 0.0 0.0 0.0 1.0 anisotropy -0.0007 0.0 0.0 1.0
fix_modify      1 energy yes
fix             2 all langevin/spin ${runtemp} 0.05 ${runseed}
fix             2 all langevin/spin 235 0.05 ${runseed}
fix             2 all langevin/spin 235 0.05 21
fix             3 all nve/spin lattice frozen

timestep        0.0001

compute         out_mag all spin
compute         outsp all property/atom spx spy spz sp
thermo_style    custom step time temp pe etotal c_out_mag[4] c_out_mag[5]
thermo          200

dump            1 all custom 500 dump_pdfeir_T${runtemp}_s${runseed}.lammpstrj type x y z c_outsp[1] c_outsp[2] c_outsp[3]
dump            1 all custom 500 dump_pdfeir_T235_s${runseed}.lammpstrj type x y z c_outsp[1] c_outsp[2] c_outsp[3]
dump            1 all custom 500 dump_pdfeir_T235_s21.lammpstrj type x y z c_outsp[1] c_outsp[2] c_outsp[3]

# Equilibrate then production sample. 20k steps @ dt=0.0001 ps = 2 ps -- short first pass;
# extend once the T_c ~214K checkpoint from the paper needs finer sampling.
run             20000

CITE-CITE-CITE-CITE-CITE-CITE-CITE-CITE-CITE-CITE-CITE-CITE-CITE

Your simulation uses code contributions which should be cited:

- fix nve/spin command: https://doi.org/10.1016/j.jcp.2018.06.042

@article{tranchida2018massively,
title={Massively Parallel Symplectic Algorithm for Coupled Magnetic Spin    Dynamics and Molecular Dynamics},
author={Tranchida, J and Plimpton, S J and Thibaudeau, P and Thompson, A P},
journal={Journal of Computational Physics},
volume={372},
pages={406--425},
year={2018},
publisher={Elsevier}
doi={10.1016/j.jcp.2018.06.042}
}

CITE-CITE-CITE-CITE-CITE-CITE-CITE-CITE-CITE-CITE-CITE-CITE-CITE

Generated 0 of 0 mixed pair_coeff terms from geometric mixing rule
Neighbor list info ...
  update: every = 10 steps, delay = 20 steps, check = yes
  max neighbors/atom: 2000, page size: 100000
  master list distance cutoff = 3.558
  ghost atom cutoff = 3.558
  binsize = 1.779, bins = 229 133 2
  3 neighbor lists, perpetual/occasional/extra = 3 0 0
  (1) pair spin/exchange, perpetual
      attributes: full, newton on
      pair build: full/bin/atomonly
      stencil: full/bin/3d
      bin: standard
  (2) pair spin/dmi, perpetual, copy from (1)
      attributes: full, newton on
      pair build: copy
      stencil: none
      bin: none
  (3) pair spin/magelec, perpetual, copy from (1)
      attributes: full, newton on
      pair build: copy
      stencil: none
      bin: none
WARNING: Dump 1 includes no atom IDs and is not sorted by ID. This may complicate post-processing tasks or visualization (src/dump.cpp:220)
Per MPI rank memory allocation (min/avg/max) = 6.591 | 6.591 | 6.591 Mbytes
   Step          Time           Temp          PotEng         TotEng      c_out_mag[4]   c_out_mag[5] 
      2522   0.2522         0             -1.0275171     -1.0275171      0.030922721   -1.0275171    
      2600   0.26           0              6.8824981      6.8824981      0.030223385    6.8824981    
      2800   0.28           0              24.686272      24.686272      0.031221996    24.686272    
      3000   0.3            0              39.865348      39.865348      0.030922573    39.865348    
      3200   0.32           0              52.199282      52.199282      0.028810144    52.199282    
      3400   0.34           0              62.625949      62.625949      0.029735487    62.625949    
      3600   0.36           0              71.810132      71.810132      0.029582046    71.810132    
      3800   0.38           0              79.923873      79.923873      0.025038505    79.923873    
      4000   0.4            0              87.638225      87.638225      0.023760288    87.638225    
      4200   0.42           0              94.340114      94.340114      0.024327112    94.340114    
      4400   0.44           0              100.13381      100.13381      0.021486509    100.13381    
      4600   0.46           0              105.09561      105.09561      0.0193613      105.09561    
      4800   0.48           0              110.00356      110.00356      0.01950272     110.00356    
      5000   0.5            0              114.11894      114.11894      0.014958393    114.11894    
      5200   0.52           0              117.7243       117.7243       0.013838819    117.7243     
      5400   0.54           0              120.65297      120.65297      0.014148282    120.65297    
      5600   0.56           0              124.10366      124.10366      0.013635417    124.10366    
      5800   0.58           0              126.23534      126.23534      0.015819303    126.23534    
      6000   0.6            0              128.8723       128.8723       0.015283039    128.8723     
      6200   0.62           0              131.52753      131.52753      0.012059346    131.52753    
      6400   0.64           0              133.61886      133.61886      0.012291896    133.61886    
      6600   0.66           0              135.77432      135.77432      0.011156086    135.77432    
      6800   0.68           0              137.33813      137.33813      0.011782028    137.33813    
      7000   0.7            0              138.58703      138.58703      0.01056166     138.58703    
      7200   0.72           0              140.45624      140.45624      0.011793469    140.45624    
      7400   0.74           0              141.87358      141.87358      0.013406899    141.87358    
      7600   0.76           0              143.22286      143.22286      0.012017179    143.22286    
      7800   0.78           0              144.25596      144.25596      0.012628839    144.25596    
      8000   0.8            0              145.50056      145.50056      0.010199386    145.50056    
      8200   0.82           0              146.11497      146.11497      0.0068285709   146.11497    
      8400   0.84           0              146.72439      146.72439      0.0069167655   146.72439    
      8600   0.86           0              147.57437      147.57437      0.0051339936   147.57437    
      8800   0.88           0              148.20476      148.20476      0.0071232055   148.20476    
      9000   0.9            0              148.84199      148.84199      0.007094069    148.84199    
      9200   0.92           0              149.6222       149.6222       0.008135153    149.6222     
      9400   0.94           0              149.84107      149.84107      0.0082918734   149.84107    
      9600   0.96           0              150.52998      150.52998      0.0054765741   150.52998    
      9800   0.98           0              150.7368       150.7368       0.0075056608   150.7368     
     10000   1              0              151.55217      151.55217      0.0068193081   151.55217    
     10200   1.02           0              151.63892      151.63892      0.0073347626   151.63892    
     10400   1.04           0              152.05586      152.05586      0.0079780279   152.05586    
     10600   1.06           0              152.48015      152.48015      0.009065725    152.48015    
     10800   1.08           0              152.94541      152.94541      0.0072482175   152.94541    
     11000   1.1            0              153.11272      153.11272      0.006540557    153.11272    
     11200   1.12           0              153.62845      153.62845      0.0069055826   153.62845    
     11400   1.14           0              153.93388      153.93388      0.0070711595   153.93388    
     11600   1.16           0              154.59333      154.59333      0.0074413063   154.59333    
     11800   1.18           0              154.40428      154.40428      0.006730935    154.40428    
     12000   1.2            0              154.67181      154.67181      0.0057585636   154.67181    
     12200   1.22           0              154.80487      154.80487      0.0085117025   154.80487    
     12400   1.24           0              155.06017      155.06017      0.011599105    155.06017    
     12600   1.26           0              154.94664      154.94664      0.011721269    154.94664    
     12800   1.28           0              155.11213      155.11213      0.013105642    155.11213    
     13000   1.3            0              155.17327      155.17327      0.0099914531   155.17327    
     13200   1.32           0              155.71519      155.71519      0.0095812822   155.71519    
     13400   1.34           0              155.85804      155.85804      0.011306677    155.85804    
     13600   1.36           0              156.04724      156.04724      0.011024575    156.04724    
     13800   1.38           0              156.14293      156.14293      0.0082482452   156.14293    
     14000   1.4            0              156.2292       156.2292       0.0075375774   156.2292     
     14200   1.42           0              156.35657      156.35657      0.0067323801   156.35657    
     14400   1.44           0              156.49837      156.49837      0.0077106766   156.49837    
     14600   1.46           0              156.5193       156.5193       0.0082347532   156.5193     
     14800   1.48           0              156.04165      156.04165      0.0081830397   156.04165    
     15000   1.5            0              156.05543      156.05543      0.0074655805   156.05543    
     15200   1.52           0              155.8144       155.8144       0.010463049    155.8144     
     15400   1.54           0              155.96986      155.96986      0.011876701    155.96986    
     15600   1.56           0              155.88926      155.88926      0.0081824422   155.88926    
     15800   1.58           0              155.97585      155.97585      0.0052847517   155.97585    
     16000   1.6            0              156.36045      156.36045      0.0068724451   156.36045    
     16200   1.62           0              156.42893      156.42893      0.0055869715   156.42893    
     16400   1.64           0              156.78019      156.78019      0.0040576298   156.78019    
     16600   1.66           0              156.48305      156.48305      0.0061203673   156.48305    
     16800   1.68           0              156.70815      156.70815      0.0066207217   156.70815    
     17000   1.7            0              156.64673      156.64673      0.008228327    156.64673    
     17200   1.72           0              156.60413      156.60413      0.0081261387   156.60413    
     17400   1.74           0              156.45373      156.45373      0.0058273496   156.45373    
     17600   1.76           0              156.5176       156.5176       0.008769116    156.5176     
     17800   1.78           0              156.13371      156.13371      0.0094001868   156.13371    
     18000   1.8            0              155.90584      155.90584      0.0087496447   155.90584    
     18200   1.82           0              155.9682       155.9682       0.0084327007   155.9682     
     18400   1.84           0              155.94696      155.94696      0.0092287035   155.94696    
     18600   1.86           0              155.89144      155.89144      0.0069919367   155.89144    
     18800   1.88           0              155.91855      155.91855      0.0073151918   155.91855    
     19000   1.9            0              156.15587      156.15587      0.0062893839   156.15587    
     19200   1.92           0              156.35942      156.35942      0.0052413698   156.35942    
     19400   1.94           0              156.22966      156.22966      0.003933113    156.22966    
     19600   1.96           0              156.35431      156.35431      0.0040287631   156.35431    
     19800   1.98           0              156.54031      156.54031      0.003313946    156.54031    
     20000   2              0              156.55485      156.55485      0.0049725332   156.55485    
     20200   2.02           0              156.52646      156.52646      0.0054192084   156.52646    
     20400   2.04           0              156.82037      156.82037      0.0071212395   156.82037    
     20600   2.06           0              157.17675      157.17675      0.0082036448   157.17675    
     20800   2.08           0              157.02779      157.02779      0.0088457808   157.02779    
     21000   2.1            0              157.19292      157.19292      0.0098048426   157.19292    
     21200   2.12           0              156.88667      156.88667      0.0085070032   156.88667    
     21400   2.14           0              156.75591      156.75591      0.0092783272   156.75591    
     21600   2.16           0              156.66205      156.66205      0.0066630367   156.66205    
     21800   2.18           0              156.69663      156.69663      0.0060821819   156.69663    
     22000   2.2            0              156.66858      156.66858      0.0079711912   156.66858    
     22200   2.22           0              156.33398      156.33398      0.0076645314   156.33398    
     22400   2.24           0              156.30696      156.30696      0.0040210301   156.30696    
     22522   2.2522         0              156.47692      156.47692      0.0046463859   156.47692    
Loop time of 510.405 on 1 procs for 20000 steps with 15000 atoms

Performance: 0.339 ns/day, 70.890 hours/ns, 39.185 timesteps/s, 587.769 katom-step/s
100.0% CPU use with 1 MPI tasks x 1 OpenMP threads

MPI task timing breakdown:
Section |  min time  |  avg time  |  max time  |%varavg| %total
---------------------------------------------------------------
Pair    | 127.82     | 127.82     | 127.82     |   0.0 | 25.04
Neigh   | 0          | 0          | 0          |   0.0 |  0.00
Comm    | 0.38195    | 0.38195    | 0.38195    |   0.0 |  0.07
Output  | 0.82891    | 0.82891    | 0.82891    |   0.0 |  0.16
Modify  | 380.52     | 380.52     | 380.52     |   0.0 | 74.55
Other   |            | 0.8562     |            |       |  0.17

Nlocal:          15000 ave       15000 max       15000 min
Histogram: 1 0 0 0 0 0 0 0 0 0
Nghost:            707 ave         707 max         707 min
Histogram: 1 0 0 0 0 0 0 0 0 0
Neighs:              0 ave           0 max           0 min
Histogram: 1 0 0 0 0 0 0 0 0 0
FullNghs:        90000 ave       90000 max       90000 min
Histogram: 1 0 0 0 0 0 0 0 0 0

Total # of neighbors = 90000
Ave neighs/atom = 6
Neighbor list builds = 0
Dangerous builds = 0

print           "DYNAMICS_T${runtemp}_DONE"
DYNAMICS_T235_DONE
Total wall time: 0:08:30
