LAMMPS (10 Dec 2025 - Development - patch_10Dec2025-120-ga51f9ba0e7)
OMP_NUM_THREADS environment is not set. Defaulting to 1 thread.
  using 1 OpenMP thread(s) per MPI task
# Finite-T Langevin spin-dynamics stage for the Pd/Fe/Ir(111) effective model (see
# in.pdfeir_effective.lammps for the Hamiltonian, parameters, and their provenance).
# Run via run_scan.sh, one temperature per invocation: -var runtemp <K> -var runseed <int>
#
# Segfault root cause and fix (found by bisection, 2026-08-16):
#   `fix nve/spin` + a dynamics `run` was segfaulting on the real system on every LAMMPS
#   build tried, including a from-source rebuild with the SPIN package freshly enabled
#   (10 Dec 2025 dev snapshot). Bisected on a minimal reproducer down to: LAMMPS's
#   `pair_style hybrid/overlay` segfaults during force computation whenever it wraps
#   EXACTLY TWO SPIN-package pair substyles (confirmed for spin/exchange+spin/dmi and,
#   independently, spin/exchange+spin/magelec) -- reproduces regardless of langevin/spin,
#   fix declaration order, lattice geometry/boundary, or DMI direction, and is NOT specific
#   to this system: examples/SPIN/bfo (which combines exchange+magelec+dmi, THREE
#   substyles) ships with LAMMPS and runs fine on the exact same build. Adding a third,
#   physically-inert (zero-strength) spin/magelec substyle to pad hybrid/overlay to three
#   substyles avoids the crash entirely -- verified against this real system (600-atom
#   scaled check, 500-step Langevin run, smooth non-NaN energy relaxation) before adopting
#   it here. This is a LAMMPS bug (not a modeling error); the padding is a workaround,
#   not a physics change (magelec coefficient is exactly 0).

units           metal
atom_style      spin
dimension       3
boundary        p p f
atom_modify     map array

read_restart    restart.pdfeir_T0.equil
Reading restart file ...
  restart file = 10 Dec 2025, LAMMPS = 10 Dec 2025
  restoring atom style spin from restart
  orthogonal box = (0 0 -1.3575) to (407.25 235.1259 1.3575)
  1 by 1 by 1 MPI processor grid
  restoring pair style hybrid/overlay from restart
  15000 atoms
  read_restart CPU = 0.004 seconds

variable        rnn equal 2.715
variable        j_eff_eV equal 0.00368
variable        exch_a equal v_j_eff_eV*2.718281828/4.0
variable        rc_exch equal 1.2*${rnn}
variable        rc_exch equal 1.2*2.715
variable        d_eV equal 0.00139
variable        rc_dmi equal 1.2*${rnn}
variable        rc_dmi equal 1.2*2.715
variable        k_eV equal -0.0007

# --- workaround: pad hybrid/overlay to 3 spin substyles, see note above ---
pair_style      hybrid/overlay spin/exchange ${rc_exch} spin/dmi ${rc_dmi} spin/magelec ${rc_exch}
pair_style      hybrid/overlay spin/exchange 3.258 spin/dmi ${rc_dmi} spin/magelec ${rc_exch}
pair_style      hybrid/overlay spin/exchange 3.258 spin/dmi 3.258 spin/magelec ${rc_exch}
pair_style      hybrid/overlay spin/exchange 3.258 spin/dmi 3.258 spin/magelec 3.258
pair_coeff      * * spin/exchange exchange ${rc_exch} ${exch_a} 0.0 ${rnn} offset yes
pair_coeff      * * spin/exchange exchange 3.258 ${exch_a} 0.0 ${rnn} offset yes
pair_coeff      * * spin/exchange exchange 3.258 0.00250081928176 0.0 ${rnn} offset yes
pair_coeff      * * spin/exchange exchange 3.258 0.00250081928176 0.0 2.715 offset yes
pair_coeff      * * spin/dmi dmi ${rc_dmi} ${d_eV} 0.0 0.0 1.0
pair_coeff      * * spin/dmi dmi 3.258 ${d_eV} 0.0 0.0 1.0
pair_coeff      * * spin/dmi dmi 3.258 0.00139 0.0 0.0 1.0
pair_coeff      * * spin/magelec magelec ${rc_exch} 0.0 1.0 1.0 1.0   # zero strength: workaround only
pair_coeff      * * spin/magelec magelec 3.258 0.0 1.0 1.0 1.0   

neighbor        0.3 bin
neigh_modify    every 10 check yes delay 20

fix             1 all precession/spin zeeman 0.0 0.0 0.0 1.0 anisotropy ${k_eV} 0.0 0.0 1.0
fix             1 all precession/spin zeeman 0.0 0.0 0.0 1.0 anisotropy -0.0007 0.0 0.0 1.0
fix_modify      1 energy yes
fix             2 all langevin/spin ${runtemp} 0.05 ${runseed}
fix             2 all langevin/spin 180 0.05 ${runseed}
fix             2 all langevin/spin 180 0.05 21
fix             3 all nve/spin lattice frozen

timestep        0.0001

compute         out_mag all spin
compute         outsp all property/atom spx spy spz sp
thermo_style    custom step time temp pe etotal c_out_mag[4] c_out_mag[5]
thermo          200

dump            1 all custom 500 dump_pdfeir_T${runtemp}.lammpstrj type x y z c_outsp[1] c_outsp[2] c_outsp[3]
dump            1 all custom 500 dump_pdfeir_T180.lammpstrj type x y z c_outsp[1] c_outsp[2] c_outsp[3]

# Equilibrate then production sample. 20k steps @ dt=0.0001 ps = 2 ps -- short first pass;
# extend once the T_c ~214K checkpoint from the paper needs finer sampling.
run             20000

CITE-CITE-CITE-CITE-CITE-CITE-CITE-CITE-CITE-CITE-CITE-CITE-CITE

Your simulation uses code contributions which should be cited:

- fix nve/spin command: https://doi.org/10.1016/j.jcp.2018.06.042

@article{tranchida2018massively,
title={Massively Parallel Symplectic Algorithm for Coupled Magnetic Spin    Dynamics and Molecular Dynamics},
author={Tranchida, J and Plimpton, S J and Thibaudeau, P and Thompson, A P},
journal={Journal of Computational Physics},
volume={372},
pages={406--425},
year={2018},
publisher={Elsevier}
doi={10.1016/j.jcp.2018.06.042}
}

CITE-CITE-CITE-CITE-CITE-CITE-CITE-CITE-CITE-CITE-CITE-CITE-CITE

Generated 0 of 0 mixed pair_coeff terms from geometric mixing rule
Neighbor list info ...
  update: every = 10 steps, delay = 20 steps, check = yes
  max neighbors/atom: 2000, page size: 100000
  master list distance cutoff = 3.558
  ghost atom cutoff = 3.558
  binsize = 1.779, bins = 229 133 2
  3 neighbor lists, perpetual/occasional/extra = 3 0 0
  (1) pair spin/exchange, perpetual
      attributes: full, newton on
      pair build: full/bin/atomonly
      stencil: full/bin/3d
      bin: standard
  (2) pair spin/dmi, perpetual, copy from (1)
      attributes: full, newton on
      pair build: copy
      stencil: none
      bin: none
  (3) pair spin/magelec, perpetual, copy from (1)
      attributes: full, newton on
      pair build: copy
      stencil: none
      bin: none
WARNING: Dump 1 includes no atom IDs and is not sorted by ID. This may complicate post-processing tasks or visualization (src/dump.cpp:220)
Per MPI rank memory allocation (min/avg/max) = 6.591 | 6.591 | 6.591 Mbytes
   Step          Time           Temp          PotEng         TotEng      c_out_mag[4]   c_out_mag[5] 
      2522   0.2522         0             -1.0275171     -1.0275171      0.030922721   -1.0275171    
      2600   0.26           0              5.0651887      5.0651887      0.030374376    5.0651887    
      2800   0.28           0              19.024251      19.024251      0.031309444    19.024251    
      3000   0.3            0              31.201435      31.201435      0.031324009    31.201435    
      3200   0.32           0              41.338928      41.338928      0.029609359    41.338928    
      3400   0.34           0              50.070655      50.070655      0.030412225    50.070655    
      3600   0.36           0              57.842719      57.842719      0.030243651    57.842719    
      3800   0.38           0              64.777646      64.777646      0.026173836    64.777646    
      4000   0.4            0              71.508169      71.508169      0.024889768    71.508169    
      4200   0.42           0              77.618461      77.618461      0.025588588    77.618461    
      4400   0.44           0              82.853851      82.853851      0.02288819     82.853851    
      4600   0.46           0              87.396554      87.396554      0.021286838    87.396554    
      4800   0.48           0              91.972864      91.972864      0.021645509    91.972864    
      5000   0.5            0              95.948801      95.948801      0.018318681    95.948801    
      5200   0.52           0              99.591212      99.591212      0.017584091    99.591212    
      5400   0.54           0              102.4683       102.4683       0.016996434    102.4683     
      5600   0.56           0              105.81351      105.81351      0.015953993    105.81351    
      5800   0.58           0              108.18097      108.18097      0.017894815    108.18097    
      6000   0.6            0              110.78995      110.78995      0.017410264    110.78995    
      6200   0.62           0              113.57358      113.57358      0.014937854    113.57358    
      6400   0.64           0              116.10915      116.10915      0.014194925    116.10915    
      6600   0.66           0              118.51736      118.51736      0.013494673    118.51736    
      6800   0.68           0              120.82675      120.82675      0.013752595    120.82675    
      7000   0.7            0              122.57804      122.57804      0.012937283    122.57804    
      7200   0.72           0              124.75176      124.75176      0.013327594    124.75176    
      7400   0.74           0              126.23796      126.23796      0.013204988    126.23796    
      7600   0.76           0              127.69119      127.69119      0.01371194     127.69119    
      7800   0.78           0              129.01923      129.01923      0.01367616     129.01923    
      8000   0.8            0              130.67727      130.67727      0.010818085    130.67727    
      8200   0.82           0              131.58418      131.58418      0.0080952758   131.58418    
      8400   0.84           0              132.44686      132.44686      0.0092838629   132.44686    
      8600   0.86           0              133.8555       133.8555       0.0096256064   133.8555     
      8800   0.88           0              134.66456      134.66456      0.011994681    134.66456    
      9000   0.9            0              135.47191      135.47191      0.012177408    135.47191    
      9200   0.92           0              136.46733      136.46733      0.013853037    136.46733    
      9400   0.94           0              137.2071       137.2071       0.014993739    137.2071     
      9600   0.96           0              138.02642      138.02642      0.014259425    138.02642    
      9800   0.98           0              139.09507      139.09507      0.012196964    139.09507    
     10000   1              0              139.7045       139.7045       0.01277772     139.7045     
     10200   1.02           0              140.3679       140.3679       0.011511503    140.3679     
     10400   1.04           0              141.22172      141.22172      0.010287697    141.22172    
     10600   1.06           0              141.85129      141.85129      0.0099372912   141.85129    
     10800   1.08           0              142.58182      142.58182      0.011530165    142.58182    
     11000   1.1            0              143.49758      143.49758      0.0096113475   143.49758    
     11200   1.12           0              144.15683      144.15683      0.010121056    144.15683    
     11400   1.14           0              144.54866      144.54866      0.0066414563   144.54866    
     11600   1.16           0              145.12216      145.12216      0.0069633357   145.12216    
     11800   1.18           0              145.4811       145.4811       0.0073016946   145.4811     
     12000   1.2            0              145.86444      145.86444      0.0095559106   145.86444    
     12200   1.22           0              146.08936      146.08936      0.010023292    146.08936    
     12400   1.24           0              146.4188       146.4188       0.0086337712   146.4188     
     12600   1.26           0              146.47939      146.47939      0.010831499    146.47939    
     12800   1.28           0              146.56778      146.56778      0.0099288598   146.56778    
     13000   1.3            0              147.47843      147.47843      0.011219946    147.47843    
     13200   1.32           0              147.74494      147.74494      0.012982233    147.74494    
     13400   1.34           0              147.72702      147.72702      0.011354671    147.72702    
     13600   1.36           0              147.77351      147.77351      0.010847189    147.77351    
     13800   1.38           0              147.6639       147.6639       0.011367344    147.6639     
     14000   1.4            0              147.88892      147.88892      0.010501631    147.88892    
     14200   1.42           0              147.76766      147.76766      0.0095581407   147.76766    
     14400   1.44           0              147.99951      147.99951      0.010742495    147.99951    
     14600   1.46           0              148.18951      148.18951      0.0080854063   148.18951    
     14800   1.48           0              148.52454      148.52454      0.010986408    148.52454    
     15000   1.5            0              148.95979      148.95979      0.012187645    148.95979    
     15200   1.52           0              149.10415      149.10415      0.012436466    149.10415    
     15400   1.54           0              149.15096      149.15096      0.013702913    149.15096    
     15600   1.56           0              149.20085      149.20085      0.012312525    149.20085    
     15800   1.58           0              149.58451      149.58451      0.012383134    149.58451    
     16000   1.6            0              149.77889      149.77889      0.011287487    149.77889    
     16200   1.62           0              150.00146      150.00146      0.010562796    150.00146    
     16400   1.64           0              150.53518      150.53518      0.012154742    150.53518    
     16600   1.66           0              150.79984      150.79984      0.012272056    150.79984    
     16800   1.68           0              150.57327      150.57327      0.011331734    150.57327    
     17000   1.7            0              150.45091      150.45091      0.009749265    150.45091    
     17200   1.72           0              150.23769      150.23769      0.011699111    150.23769    
     17400   1.74           0              150.42943      150.42943      0.01242206     150.42943    
     17600   1.76           0              150.8266       150.8266       0.012956946    150.8266     
     17800   1.78           0              151.20245      151.20245      0.010158495    151.20245    
     18000   1.8            0              151.07329      151.07329      0.0092136005   151.07329    
     18200   1.82           0              151.26277      151.26277      0.010344112    151.26277    
     18400   1.84           0              151.35089      151.35089      0.011834326    151.35089    
     18600   1.86           0              151.69559      151.69559      0.0092128519   151.69559    
     18800   1.88           0              151.39603      151.39603      0.008746186    151.39603    
     19000   1.9            0              151.25126      151.25126      0.010411499    151.25126    
     19200   1.92           0              151.18258      151.18258      0.0095080297   151.18258    
     19400   1.94           0              151.31336      151.31336      0.012007252    151.31336    
     19600   1.96           0              151.44244      151.44244      0.012675858    151.44244    
     19800   1.98           0              151.24158      151.24158      0.0098651732   151.24158    
     20000   2              0              150.99311      150.99311      0.011492643    150.99311    
     20200   2.02           0              150.84176      150.84176      0.0095996987   150.84176    
     20400   2.04           0              150.57924      150.57924      0.010688843    150.57924    
     20600   2.06           0              150.77895      150.77895      0.010078942    150.77895    
     20800   2.08           0              150.82734      150.82734      0.0097965588   150.82734    
     21000   2.1            0              150.68639      150.68639      0.0089938671   150.68639    
     21200   2.12           0              150.58263      150.58263      0.0072187069   150.58263    
     21400   2.14           0              150.53524      150.53524      0.0057894986   150.53524    
     21600   2.16           0              150.48265      150.48265      0.0075428791   150.48265    
     21800   2.18           0              150.22547      150.22547      0.0087216419   150.22547    
     22000   2.2            0              150.38345      150.38345      0.0097809188   150.38345    
     22200   2.22           0              150.70878      150.70878      0.011980558    150.70878    
     22400   2.24           0              150.89992      150.89992      0.013664698    150.89992    
     22522   2.2522         0              150.76588      150.76588      0.013300386    150.76588    
Loop time of 520.013 on 1 procs for 20000 steps with 15000 atoms

Performance: 0.332 ns/day, 72.224 hours/ns, 38.461 timesteps/s, 576.908 katom-step/s
99.9% CPU use with 1 MPI tasks x 1 OpenMP threads

MPI task timing breakdown:
Section |  min time  |  avg time  |  max time  |%varavg| %total
---------------------------------------------------------------
Pair    | 132.87     | 132.87     | 132.87     |   0.0 | 25.55
Neigh   | 0          | 0          | 0          |   0.0 |  0.00
Comm    | 1.2586     | 1.2586     | 1.2586     |   0.0 |  0.24
Output  | 0.88431    | 0.88431    | 0.88431    |   0.0 |  0.17
Modify  | 381.29     | 381.29     | 381.29     |   0.0 | 73.32
Other   |            | 3.711      |            |       |  0.71

Nlocal:          15000 ave       15000 max       15000 min
Histogram: 1 0 0 0 0 0 0 0 0 0
Nghost:            707 ave         707 max         707 min
Histogram: 1 0 0 0 0 0 0 0 0 0
Neighs:              0 ave           0 max           0 min
Histogram: 1 0 0 0 0 0 0 0 0 0
FullNghs:        90000 ave       90000 max       90000 min
Histogram: 1 0 0 0 0 0 0 0 0 0

Total # of neighbors = 90000
Ave neighs/atom = 6
Neighbor list builds = 0
Dangerous builds = 0

print           "DYNAMICS_T${runtemp}_DONE"
DYNAMICS_T180_DONE
Total wall time: 0:08:40
