LAMMPS (10 Dec 2025 - Development - patch_10Dec2025-120-ga51f9ba0e7)
OMP_NUM_THREADS environment is not set. Defaulting to 1 thread.
  using 1 OpenMP thread(s) per MPI task
# Finite-T Langevin spin-dynamics stage for the Pd/Fe/Ir(111) effective model (see
# in.pdfeir_effective.lammps for the Hamiltonian, parameters, and their provenance).
# Run via run_scan.sh, one temperature per invocation: -var runtemp <K> -var runseed <int>
#
# Segfault root cause and fix (found by bisection, 2026-08-16):
#   `fix nve/spin` + a dynamics `run` was segfaulting on the real system on every LAMMPS
#   build tried, including a from-source rebuild with the SPIN package freshly enabled
#   (10 Dec 2025 dev snapshot). Bisected on a minimal reproducer down to: LAMMPS's
#   `pair_style hybrid/overlay` segfaults during force computation whenever it wraps
#   EXACTLY TWO SPIN-package pair substyles (confirmed for spin/exchange+spin/dmi and,
#   independently, spin/exchange+spin/magelec) -- reproduces regardless of langevin/spin,
#   fix declaration order, lattice geometry/boundary, or DMI direction, and is NOT specific
#   to this system: examples/SPIN/bfo (which combines exchange+magelec+dmi, THREE
#   substyles) ships with LAMMPS and runs fine on the exact same build. Adding a third,
#   physically-inert (zero-strength) spin/magelec substyle to pad hybrid/overlay to three
#   substyles avoids the crash entirely -- verified against this real system (600-atom
#   scaled check, 500-step Langevin run, smooth non-NaN energy relaxation) before adopting
#   it here. This is a LAMMPS bug (not a modeling error); the padding is a workaround,
#   not a physics change (magelec coefficient is exactly 0).

units           metal
atom_style      spin
dimension       3
boundary        p p f
atom_modify     map array

read_restart    restart.pdfeir_T0.equil
Reading restart file ...
  restart file = 10 Dec 2025, LAMMPS = 10 Dec 2025
  restoring atom style spin from restart
  orthogonal box = (0 0 -1.3575) to (407.25 235.1259 1.3575)
  1 by 1 by 1 MPI processor grid
  restoring pair style hybrid/overlay from restart
  15000 atoms
  read_restart CPU = 0.003 seconds

variable        rnn equal 2.715
variable        j_eff_eV equal 0.00368
variable        exch_a equal v_j_eff_eV*2.718281828/4.0
variable        rc_exch equal 1.2*${rnn}
variable        rc_exch equal 1.2*2.715
variable        d_eV equal 0.00139
variable        rc_dmi equal 1.2*${rnn}
variable        rc_dmi equal 1.2*2.715
variable        k_eV equal -0.0007

# --- workaround: pad hybrid/overlay to 3 spin substyles, see note above ---
pair_style      hybrid/overlay spin/exchange ${rc_exch} spin/dmi ${rc_dmi} spin/magelec ${rc_exch}
pair_style      hybrid/overlay spin/exchange 3.258 spin/dmi ${rc_dmi} spin/magelec ${rc_exch}
pair_style      hybrid/overlay spin/exchange 3.258 spin/dmi 3.258 spin/magelec ${rc_exch}
pair_style      hybrid/overlay spin/exchange 3.258 spin/dmi 3.258 spin/magelec 3.258
pair_coeff      * * spin/exchange exchange ${rc_exch} ${exch_a} 0.0 ${rnn} offset yes
pair_coeff      * * spin/exchange exchange 3.258 ${exch_a} 0.0 ${rnn} offset yes
pair_coeff      * * spin/exchange exchange 3.258 0.00250081928176 0.0 ${rnn} offset yes
pair_coeff      * * spin/exchange exchange 3.258 0.00250081928176 0.0 2.715 offset yes
pair_coeff      * * spin/dmi dmi ${rc_dmi} ${d_eV} 0.0 0.0 1.0
pair_coeff      * * spin/dmi dmi 3.258 ${d_eV} 0.0 0.0 1.0
pair_coeff      * * spin/dmi dmi 3.258 0.00139 0.0 0.0 1.0
pair_coeff      * * spin/magelec magelec ${rc_exch} 0.0 1.0 1.0 1.0   # zero strength: workaround only
pair_coeff      * * spin/magelec magelec 3.258 0.0 1.0 1.0 1.0   

neighbor        0.3 bin
neigh_modify    every 10 check yes delay 20

fix             1 all precession/spin zeeman 0.0 0.0 0.0 1.0 anisotropy ${k_eV} 0.0 0.0 1.0
fix             1 all precession/spin zeeman 0.0 0.0 0.0 1.0 anisotropy -0.0007 0.0 0.0 1.0
fix_modify      1 energy yes
fix             2 all langevin/spin ${runtemp} 0.05 ${runseed}
fix             2 all langevin/spin 210 0.05 ${runseed}
fix             2 all langevin/spin 210 0.05 63
fix             3 all nve/spin lattice frozen

timestep        0.0001

compute         out_mag all spin
compute         outsp all property/atom spx spy spz sp
thermo_style    custom step time temp pe etotal c_out_mag[4] c_out_mag[5]
thermo          200

dump            1 all custom 500 dump_pdfeir_T${runtemp}_s${runseed}.lammpstrj type x y z c_outsp[1] c_outsp[2] c_outsp[3]
dump            1 all custom 500 dump_pdfeir_T210_s${runseed}.lammpstrj type x y z c_outsp[1] c_outsp[2] c_outsp[3]
dump            1 all custom 500 dump_pdfeir_T210_s63.lammpstrj type x y z c_outsp[1] c_outsp[2] c_outsp[3]

# Equilibrate then production sample. 20k steps @ dt=0.0001 ps = 2 ps -- short first pass;
# extend once the T_c ~214K checkpoint from the paper needs finer sampling.
run             20000

CITE-CITE-CITE-CITE-CITE-CITE-CITE-CITE-CITE-CITE-CITE-CITE-CITE

Your simulation uses code contributions which should be cited:

- fix nve/spin command: https://doi.org/10.1016/j.jcp.2018.06.042

@article{tranchida2018massively,
title={Massively Parallel Symplectic Algorithm for Coupled Magnetic Spin    Dynamics and Molecular Dynamics},
author={Tranchida, J and Plimpton, S J and Thibaudeau, P and Thompson, A P},
journal={Journal of Computational Physics},
volume={372},
pages={406--425},
year={2018},
publisher={Elsevier}
doi={10.1016/j.jcp.2018.06.042}
}

CITE-CITE-CITE-CITE-CITE-CITE-CITE-CITE-CITE-CITE-CITE-CITE-CITE

Generated 0 of 0 mixed pair_coeff terms from geometric mixing rule
Neighbor list info ...
  update: every = 10 steps, delay = 20 steps, check = yes
  max neighbors/atom: 2000, page size: 100000
  master list distance cutoff = 3.558
  ghost atom cutoff = 3.558
  binsize = 1.779, bins = 229 133 2
  3 neighbor lists, perpetual/occasional/extra = 3 0 0
  (1) pair spin/exchange, perpetual
      attributes: full, newton on
      pair build: full/bin/atomonly
      stencil: full/bin/3d
      bin: standard
  (2) pair spin/dmi, perpetual, copy from (1)
      attributes: full, newton on
      pair build: copy
      stencil: none
      bin: none
  (3) pair spin/magelec, perpetual, copy from (1)
      attributes: full, newton on
      pair build: copy
      stencil: none
      bin: none
WARNING: Dump 1 includes no atom IDs and is not sorted by ID. This may complicate post-processing tasks or visualization (src/dump.cpp:220)
Per MPI rank memory allocation (min/avg/max) = 6.591 | 6.591 | 6.591 Mbytes
   Step          Time           Temp          PotEng         TotEng      c_out_mag[4]   c_out_mag[5] 
      2522   0.2522         0             -1.0275171     -1.0275171      0.030922721   -1.0275171    
      2600   0.26           0              5.989734       5.989734       0.031186441    5.989734     
      2800   0.28           0              21.829904      21.829904      0.0274589      21.829904    
      3000   0.3            0              35.301792      35.301792      0.025027506    35.301792    
      3200   0.32           0              47.03724       47.03724       0.022538036    47.03724     
      3400   0.34           0              57.052348      57.052348      0.021124122    57.052348    
      3600   0.36           0              66.248309      66.248309      0.020353089    66.248309    
      3800   0.38           0              73.638642      73.638642      0.019692833    73.638642    
      4000   0.4            0              80.88555       80.88555       0.020401621    80.88555     
      4200   0.42           0              87.371647      87.371647      0.020722778    87.371647    
      4400   0.44           0              93.18489       93.18489       0.022543586    93.18489     
      4600   0.46           0              98.242426      98.242426      0.024676453    98.242426    
      4800   0.48           0              102.7431       102.7431       0.021236       102.7431     
      5000   0.5            0              107.48733      107.48733      0.016775221    107.48733    
      5200   0.52           0              110.93722      110.93722      0.017045536    110.93722    
      5400   0.54           0              114.18612      114.18612      0.015309243    114.18612    
      5600   0.56           0              117.22874      117.22874      0.012994024    117.22874    
      5800   0.58           0              120.00347      120.00347      0.012124981    120.00347    
      6000   0.6            0              122.655        122.655        0.010934383    122.655      
      6200   0.62           0              125.188        125.188        0.009047562    125.188      
      6400   0.64           0              127.74021      127.74021      0.0066754462   127.74021    
      6600   0.66           0              129.98415      129.98415      0.0062368528   129.98415    
      6800   0.68           0              132.04174      132.04174      0.0057299341   132.04174    
      7000   0.7            0              133.45739      133.45739      0.0079262191   133.45739    
      7200   0.72           0              135.12719      135.12719      0.00753941     135.12719    
      7400   0.74           0              136.92109      136.92109      0.0074066759   136.92109    
      7600   0.76           0              138.1232       138.1232       0.0050570258   138.1232     
      7800   0.78           0              139.60031      139.60031      0.0059771193   139.60031    
      8000   0.8            0              140.76817      140.76817      0.0074566862   140.76817    
      8200   0.82           0              141.51233      141.51233      0.010372466    141.51233    
      8400   0.84           0              142.66008      142.66008      0.012358276    142.66008    
      8600   0.86           0              143.48346      143.48346      0.01213357     143.48346    
      8800   0.88           0              143.77025      143.77025      0.010473448    143.77025    
      9000   0.9            0              144.58297      144.58297      0.010477834    144.58297    
      9200   0.92           0              145.16937      145.16937      0.010523349    145.16937    
      9400   0.94           0              145.15944      145.15944      0.010801005    145.15944    
      9600   0.96           0              145.66149      145.66149      0.0074702593   145.66149    
      9800   0.98           0              146.17859      146.17859      0.0066034597   146.17859    
     10000   1              0              146.86951      146.86951      0.0079884349   146.86951    
     10200   1.02           0              147.80056      147.80056      0.010116155    147.80056    
     10400   1.04           0              148.35243      148.35243      0.0094563953   148.35243    
     10600   1.06           0              148.63485      148.63485      0.011546822    148.63485    
     10800   1.08           0              148.80129      148.80129      0.010716725    148.80129    
     11000   1.1            0              149.10962      149.10962      0.011351119    149.10962    
     11200   1.12           0              149.28339      149.28339      0.01382109     149.28339    
     11400   1.14           0              150.41629      150.41629      0.013793404    150.41629    
     11600   1.16           0              150.16823      150.16823      0.014454879    150.16823    
     11800   1.18           0              151.07411      151.07411      0.016371628    151.07411    
     12000   1.2            0              151.32765      151.32765      0.016948774    151.32765    
     12200   1.22           0              151.82532      151.82532      0.017061066    151.82532    
     12400   1.24           0              152.4627       152.4627       0.018433341    152.4627     
     12600   1.26           0              152.3733       152.3733       0.016212368    152.3733     
     12800   1.28           0              152.52942      152.52942      0.01586864     152.52942    
     13000   1.3            0              152.8056       152.8056       0.018546759    152.8056     
     13200   1.32           0              152.9632       152.9632       0.017166892    152.9632     
     13400   1.34           0              153.33052      153.33052      0.013651643    153.33052    
     13600   1.36           0              153.66732      153.66732      0.014984273    153.66732    
     13800   1.38           0              153.76725      153.76725      0.014843853    153.76725    
     14000   1.4            0              153.85877      153.85877      0.015393341    153.85877    
     14200   1.42           0              154.14809      154.14809      0.0146181      154.14809    
     14400   1.44           0              154.07229      154.07229      0.011924255    154.07229    
     14600   1.46           0              154.27528      154.27528      0.013155821    154.27528    
     14800   1.48           0              153.81033      153.81033      0.015010529    153.81033    
     15000   1.5            0              153.63723      153.63723      0.015230829    153.63723    
     15200   1.52           0              153.8359       153.8359       0.01343928     153.8359     
     15400   1.54           0              154.06851      154.06851      0.012308293    154.06851    
     15600   1.56           0              153.92332      153.92332      0.012245843    153.92332    
     15800   1.58           0              153.45602      153.45602      0.0089251444   153.45602    
     16000   1.6            0              153.88837      153.88837      0.0094625279   153.88837    
     16200   1.62           0              153.78272      153.78272      0.011042111    153.78272    
     16400   1.64           0              154.0876       154.0876       0.010551809    154.0876     
     16600   1.66           0              154.0919       154.0919       0.011147561    154.0919     
     16800   1.68           0              154.29064      154.29064      0.015251731    154.29064    
     17000   1.7            0              154.40434      154.40434      0.014068738    154.40434    
     17200   1.72           0              154.61922      154.61922      0.014335217    154.61922    
     17400   1.74           0              154.56342      154.56342      0.016483445    154.56342    
     17600   1.76           0              154.80616      154.80616      0.015704863    154.80616    
     17800   1.78           0              154.44851      154.44851      0.015747471    154.44851    
     18000   1.8            0              154.0452       154.0452       0.015882474    154.0452     
     18200   1.82           0              154.09125      154.09125      0.015412997    154.09125    
     18400   1.84           0              154.14839      154.14839      0.013952255    154.14839    
     18600   1.86           0              154.50038      154.50038      0.010450907    154.50038    
     18800   1.88           0              154.96381      154.96381      0.012446345    154.96381    
     19000   1.9            0              154.87371      154.87371      0.011979709    154.87371    
     19200   1.92           0              155.14885      155.14885      0.012722204    155.14885    
     19400   1.94           0              155.28009      155.28009      0.010455704    155.28009    
     19600   1.96           0              155.43633      155.43633      0.010839553    155.43633    
     19800   1.98           0              155.46476      155.46476      0.014785006    155.46476    
     20000   2              0              155.13612      155.13612      0.016832464    155.13612    
     20200   2.02           0              154.7764       154.7764       0.017507467    154.7764     
     20400   2.04           0              155.00634      155.00634      0.013169686    155.00634    
     20600   2.06           0              154.97533      154.97533      0.011454158    154.97533    
     20800   2.08           0              154.76196      154.76196      0.012665651    154.76196    
     21000   2.1            0              154.91337      154.91337      0.010353708    154.91337    
     21200   2.12           0              154.83577      154.83577      0.0078437564   154.83577    
     21400   2.14           0              155.01866      155.01866      0.0085696294   155.01866    
     21600   2.16           0              154.76573      154.76573      0.010286847    154.76573    
     21800   2.18           0              154.88722      154.88722      0.011350563    154.88722    
     22000   2.2            0              154.6807       154.6807       0.011436356    154.6807     
     22200   2.22           0              155.02969      155.02969      0.013379217    155.02969    
     22400   2.24           0              155.16025      155.16025      0.012542291    155.16025    
     22522   2.2522         0              155.30581      155.30581      0.015183332    155.30581    
Loop time of 597.016 on 1 procs for 20000 steps with 15000 atoms

Performance: 0.289 ns/day, 82.919 hours/ns, 33.500 timesteps/s, 502.499 katom-step/s
99.9% CPU use with 1 MPI tasks x 1 OpenMP threads

MPI task timing breakdown:
Section |  min time  |  avg time  |  max time  |%varavg| %total
---------------------------------------------------------------
Pair    | 148.7      | 148.7      | 148.7      |   0.0 | 24.91
Neigh   | 0          | 0          | 0          |   0.0 |  0.00
Comm    | 0.51173    | 0.51173    | 0.51173    |   0.0 |  0.09
Output  | 0.94175    | 0.94175    | 0.94175    |   0.0 |  0.16
Modify  | 445.46     | 445.46     | 445.46     |   0.0 | 74.61
Other   |            | 1.4        |            |       |  0.23

Nlocal:          15000 ave       15000 max       15000 min
Histogram: 1 0 0 0 0 0 0 0 0 0
Nghost:            707 ave         707 max         707 min
Histogram: 1 0 0 0 0 0 0 0 0 0
Neighs:              0 ave           0 max           0 min
Histogram: 1 0 0 0 0 0 0 0 0 0
FullNghs:        90000 ave       90000 max       90000 min
Histogram: 1 0 0 0 0 0 0 0 0 0

Total # of neighbors = 90000
Ave neighs/atom = 6
Neighbor list builds = 0
Dangerous builds = 0

print           "DYNAMICS_T${runtemp}_DONE"
DYNAMICS_T210_DONE
Total wall time: 0:09:57
