LAMMPS (10 Dec 2025 - Development - patch_10Dec2025-120-ga51f9ba0e7)
OMP_NUM_THREADS environment is not set. Defaulting to 1 thread.
  using 1 OpenMP thread(s) per MPI task
# Finite-T Langevin spin-dynamics stage for the Pd/Fe/Ir(111) effective model (see
# in.pdfeir_effective.lammps for the Hamiltonian, parameters, and their provenance).
# Run via run_scan.sh, one temperature per invocation: -var runtemp <K> -var runseed <int>
#
# Segfault root cause and fix (found by bisection, 2026-08-16):
#   `fix nve/spin` + a dynamics `run` was segfaulting on the real system on every LAMMPS
#   build tried, including a from-source rebuild with the SPIN package freshly enabled
#   (10 Dec 2025 dev snapshot). Bisected on a minimal reproducer down to: LAMMPS's
#   `pair_style hybrid/overlay` segfaults during force computation whenever it wraps
#   EXACTLY TWO SPIN-package pair substyles (confirmed for spin/exchange+spin/dmi and,
#   independently, spin/exchange+spin/magelec) -- reproduces regardless of langevin/spin,
#   fix declaration order, lattice geometry/boundary, or DMI direction, and is NOT specific
#   to this system: examples/SPIN/bfo (which combines exchange+magelec+dmi, THREE
#   substyles) ships with LAMMPS and runs fine on the exact same build. Adding a third,
#   physically-inert (zero-strength) spin/magelec substyle to pad hybrid/overlay to three
#   substyles avoids the crash entirely -- verified against this real system (600-atom
#   scaled check, 500-step Langevin run, smooth non-NaN energy relaxation) before adopting
#   it here. This is a LAMMPS bug (not a modeling error); the padding is a workaround,
#   not a physics change (magelec coefficient is exactly 0).

units           metal
atom_style      spin
dimension       3
boundary        p p f
atom_modify     map array

read_restart    restart.pdfeir_T0.equil
Reading restart file ...
  restart file = 10 Dec 2025, LAMMPS = 10 Dec 2025
  restoring atom style spin from restart
  orthogonal box = (0 0 -1.3575) to (407.25 235.1259 1.3575)
  1 by 1 by 1 MPI processor grid
  restoring pair style hybrid/overlay from restart
  15000 atoms
  read_restart CPU = 0.003 seconds

variable        rnn equal 2.715
variable        j_eff_eV equal 0.00368
variable        exch_a equal v_j_eff_eV*2.718281828/4.0
variable        rc_exch equal 1.2*${rnn}
variable        rc_exch equal 1.2*2.715
variable        d_eV equal 0.00139
variable        rc_dmi equal 1.2*${rnn}
variable        rc_dmi equal 1.2*2.715
variable        k_eV equal -0.0007

# --- workaround: pad hybrid/overlay to 3 spin substyles, see note above ---
pair_style      hybrid/overlay spin/exchange ${rc_exch} spin/dmi ${rc_dmi} spin/magelec ${rc_exch}
pair_style      hybrid/overlay spin/exchange 3.258 spin/dmi ${rc_dmi} spin/magelec ${rc_exch}
pair_style      hybrid/overlay spin/exchange 3.258 spin/dmi 3.258 spin/magelec ${rc_exch}
pair_style      hybrid/overlay spin/exchange 3.258 spin/dmi 3.258 spin/magelec 3.258
pair_coeff      * * spin/exchange exchange ${rc_exch} ${exch_a} 0.0 ${rnn} offset yes
pair_coeff      * * spin/exchange exchange 3.258 ${exch_a} 0.0 ${rnn} offset yes
pair_coeff      * * spin/exchange exchange 3.258 0.00250081928176 0.0 ${rnn} offset yes
pair_coeff      * * spin/exchange exchange 3.258 0.00250081928176 0.0 2.715 offset yes
pair_coeff      * * spin/dmi dmi ${rc_dmi} ${d_eV} 0.0 0.0 1.0
pair_coeff      * * spin/dmi dmi 3.258 ${d_eV} 0.0 0.0 1.0
pair_coeff      * * spin/dmi dmi 3.258 0.00139 0.0 0.0 1.0
pair_coeff      * * spin/magelec magelec ${rc_exch} 0.0 1.0 1.0 1.0   # zero strength: workaround only
pair_coeff      * * spin/magelec magelec 3.258 0.0 1.0 1.0 1.0   

neighbor        0.3 bin
neigh_modify    every 10 check yes delay 20

fix             1 all precession/spin zeeman 0.0 0.0 0.0 1.0 anisotropy ${k_eV} 0.0 0.0 1.0
fix             1 all precession/spin zeeman 0.0 0.0 0.0 1.0 anisotropy -0.0007 0.0 0.0 1.0
fix_modify      1 energy yes
fix             2 all langevin/spin ${runtemp} 0.05 ${runseed}
fix             2 all langevin/spin 300 0.05 ${runseed}
fix             2 all langevin/spin 300 0.05 21
fix             3 all nve/spin lattice frozen

timestep        0.0001

compute         out_mag all spin
compute         outsp all property/atom spx spy spz sp
thermo_style    custom step time temp pe etotal c_out_mag[4] c_out_mag[5]
thermo          200

dump            1 all custom 500 dump_pdfeir_T${runtemp}.lammpstrj type x y z c_outsp[1] c_outsp[2] c_outsp[3]
dump            1 all custom 500 dump_pdfeir_T300.lammpstrj type x y z c_outsp[1] c_outsp[2] c_outsp[3]

# Equilibrate then production sample. 20k steps @ dt=0.0001 ps = 2 ps -- short first pass;
# extend once the T_c ~214K checkpoint from the paper needs finer sampling.
run             20000

CITE-CITE-CITE-CITE-CITE-CITE-CITE-CITE-CITE-CITE-CITE-CITE-CITE

Your simulation uses code contributions which should be cited:

- fix nve/spin command: https://doi.org/10.1016/j.jcp.2018.06.042

@article{tranchida2018massively,
title={Massively Parallel Symplectic Algorithm for Coupled Magnetic Spin    Dynamics and Molecular Dynamics},
author={Tranchida, J and Plimpton, S J and Thibaudeau, P and Thompson, A P},
journal={Journal of Computational Physics},
volume={372},
pages={406--425},
year={2018},
publisher={Elsevier}
doi={10.1016/j.jcp.2018.06.042}
}

CITE-CITE-CITE-CITE-CITE-CITE-CITE-CITE-CITE-CITE-CITE-CITE-CITE

Generated 0 of 0 mixed pair_coeff terms from geometric mixing rule
Neighbor list info ...
  update: every = 10 steps, delay = 20 steps, check = yes
  max neighbors/atom: 2000, page size: 100000
  master list distance cutoff = 3.558
  ghost atom cutoff = 3.558
  binsize = 1.779, bins = 229 133 2
  3 neighbor lists, perpetual/occasional/extra = 3 0 0
  (1) pair spin/exchange, perpetual
      attributes: full, newton on
      pair build: full/bin/atomonly
      stencil: full/bin/3d
      bin: standard
  (2) pair spin/dmi, perpetual, copy from (1)
      attributes: full, newton on
      pair build: copy
      stencil: none
      bin: none
  (3) pair spin/magelec, perpetual, copy from (1)
      attributes: full, newton on
      pair build: copy
      stencil: none
      bin: none
WARNING: Dump 1 includes no atom IDs and is not sorted by ID. This may complicate post-processing tasks or visualization (src/dump.cpp:220)
Per MPI rank memory allocation (min/avg/max) = 6.591 | 6.591 | 6.591 Mbytes
   Step          Time           Temp          PotEng         TotEng      c_out_mag[4]   c_out_mag[5] 
      2522   0.2522         0             -1.0275171     -1.0275171      0.030922721   -1.0275171    
      2600   0.26           0              9.0041413      9.0041413      0.030046697    9.0041413    
      2800   0.28           0              31.115321      31.115321      0.031086697    31.115321    
      3000   0.3            0              49.449407      49.449407      0.030373306    49.449407    
      3200   0.32           0              63.914823      63.914823      0.027833406    63.914823    
      3400   0.34           0              75.871217      75.871217      0.028910861    75.871217    
      3600   0.36           0              86.234942      86.234942      0.02879568     86.234942    
      3800   0.38           0              95.223138      95.223138      0.023830366    95.223138    
      4000   0.4            0              103.54919      103.54919      0.022593444    103.54919    
      4200   0.42           0              110.46429      110.46429      0.022893009    110.46429    
      4400   0.44           0              116.4685       116.4685       0.020128809    116.4685     
      4600   0.46           0              121.35164      121.35164      0.01761715     121.35164    
      4800   0.48           0              126.02642      126.02642      0.016953496    126.02642    
      5000   0.5            0              129.95384      129.95384      0.011275502    129.95384    
      5200   0.52           0              133.101        133.101        0.0099161555   133.101      
      5400   0.54           0              135.8815       135.8815       0.01096402     135.8815     
      5600   0.56           0              139.10403      139.10403      0.010722351    139.10403    
      5800   0.58           0              140.76784      140.76784      0.012367863    140.76784    
      6000   0.6            0              142.77846      142.77846      0.01267168     142.77846    
      6200   0.62           0              144.86092      144.86092      0.0083319527   144.86092    
      6400   0.64           0              146.58714      146.58714      0.010252766    146.58714    
      6600   0.66           0              148.10943      148.10943      0.0096583092   148.10943    
      6800   0.68           0              149.4047       149.4047       0.0086183379   149.4047     
      7000   0.7            0              150.57094      150.57094      0.0098836314   150.57094    
      7200   0.72           0              151.60119      151.60119      0.010958768    151.60119    
      7400   0.74           0              152.89123      152.89123      0.01277106     152.89123    
      7600   0.76           0              153.8611       153.8611       0.011668018    153.8611     
      7800   0.78           0              154.52064      154.52064      0.010654038    154.52064    
      8000   0.8            0              155.18137      155.18137      0.009711226    155.18137    
      8200   0.82           0              155.15364      155.15364      0.008372961    155.15364    
      8400   0.84           0              155.17362      155.17362      0.0058205584   155.17362    
      8600   0.86           0              156.05801      156.05801      0.0064032022   156.05801    
      8800   0.88           0              156.66001      156.66001      0.0096129871   156.66001    
      9000   0.9            0              156.92182      156.92182      0.0090043306   156.92182    
      9200   0.92           0              157.30403      157.30403      0.01099452     157.30403    
      9400   0.94           0              157.33562      157.33562      0.015455298    157.33562    
      9600   0.96           0              157.8941       157.8941       0.013880523    157.8941     
      9800   0.98           0              158.5073       158.5073       0.01257396     158.5073     
     10000   1              0              158.50703      158.50703      0.014524593    158.50703    
     10200   1.02           0              158.47084      158.47084      0.012786313    158.47084    
     10400   1.04           0              158.42635      158.42635      0.013720837    158.42635    
     10600   1.06           0              158.34837      158.34837      0.011238496    158.34837    
     10800   1.08           0              158.58985      158.58985      0.0084875217   158.58985    
     11000   1.1            0              158.81044      158.81044      0.0073503993   158.81044    
     11200   1.12           0              158.96292      158.96292      0.0099430119   158.96292    
     11400   1.14           0              158.72004      158.72004      0.0073663485   158.72004    
     11600   1.16           0              158.95341      158.95341      0.0072503349   158.95341    
     11800   1.18           0              159.34309      159.34309      0.0072814044   159.34309    
     12000   1.2            0              159.85169      159.85169      0.0058125694   159.85169    
     12200   1.22           0              159.77296      159.77296      0.0035804785   159.77296    
     12400   1.24           0              159.53877      159.53877      0.008864948    159.53877    
     12600   1.26           0              159.93426      159.93426      0.007878193    159.93426    
     12800   1.28           0              159.76987      159.76987      0.0096178701   159.76987    
     13000   1.3            0              159.5898       159.5898       0.0092722614   159.5898     
     13200   1.32           0              159.53171      159.53171      0.0099745537   159.53171    
     13400   1.34           0              159.12736      159.12736      0.012117493    159.12736    
     13600   1.36           0              158.85691      158.85691      0.010356609    158.85691    
     13800   1.38           0              159.17179      159.17179      0.010827995    159.17179    
     14000   1.4            0              158.99779      158.99779      0.0095216283   158.99779    
     14200   1.42           0              159.41295      159.41295      0.0087099767   159.41295    
     14400   1.44           0              159.4222       159.4222       0.0071079925   159.4222     
     14600   1.46           0              159.33189      159.33189      0.0070366957   159.33189    
     14800   1.48           0              160.00352      160.00352      0.007834497    160.00352    
     15000   1.5            0              160.21915      160.21915      0.0076514666   160.21915    
     15200   1.52           0              160.12471      160.12471      0.0084019196   160.12471    
     15400   1.54           0              159.51025      159.51025      0.0069568983   159.51025    
     15600   1.56           0              159.42541      159.42541      0.0070132161   159.42541    
     15800   1.58           0              159.61941      159.61941      0.0038574946   159.61941    
     16000   1.6            0              159.33377      159.33377      0.003822142    159.33377    
     16200   1.62           0              159.87518      159.87518      0.0026120498   159.87518    
     16400   1.64           0              159.84452      159.84452      0.0024136035   159.84452    
     16600   1.66           0              159.62484      159.62484      0.0028490489   159.62484    
     16800   1.68           0              160.21127      160.21127      0.0022196507   160.21127    
     17000   1.7            0              159.91034      159.91034      0.0032897664   159.91034    
     17200   1.72           0              159.87447      159.87447      0.001489057    159.87447    
     17400   1.74           0              159.5147       159.5147       0.0020530752   159.5147     
     17600   1.76           0              159.58833      159.58833      0.0026776801   159.58833    
     17800   1.78           0              159.39588      159.39588      0.0034457093   159.39588    
     18000   1.8            0              159.3735       159.3735       0.0015204565   159.3735     
     18200   1.82           0              159.24916      159.24916      0.0038173054   159.24916    
     18400   1.84           0              159.54458      159.54458      0.0080752675   159.54458    
     18600   1.86           0              159.69753      159.69753      0.0096735649   159.69753    
     18800   1.88           0              159.77064      159.77064      0.0094712645   159.77064    
     19000   1.9            0              159.73894      159.73894      0.0070200553   159.73894    
     19200   1.92           0              159.90911      159.90911      0.0082299365   159.90911    
     19400   1.94           0              159.72824      159.72824      0.0064316532   159.72824    
     19600   1.96           0              159.37604      159.37604      0.0040245367   159.37604    
     19800   1.98           0              159.6008       159.6008       0.0045283385   159.6008     
     20000   2              0              159.64651      159.64651      0.0044165619   159.64651    
     20200   2.02           0              159.49115      159.49115      0.0049599601   159.49115    
     20400   2.04           0              159.87714      159.87714      0.0065814881   159.87714    
     20600   2.06           0              159.90709      159.90709      0.0089199504   159.90709    
     20800   2.08           0              160.40477      160.40477      0.013120131    160.40477    
     21000   2.1            0              160.57836      160.57836      0.0158209      160.57836    
     21200   2.12           0              160.59341      160.59341      0.014155873    160.59341    
     21400   2.14           0              160.55294      160.55294      0.013146329    160.55294    
     21600   2.16           0              160.52518      160.52518      0.010949528    160.52518    
     21800   2.18           0              160.60831      160.60831      0.011770651    160.60831    
     22000   2.2            0              160.36234      160.36234      0.0099879003   160.36234    
     22200   2.22           0              160.44286      160.44286      0.010080837    160.44286    
     22400   2.24           0              160.14488      160.14488      0.0080094531   160.14488    
     22522   2.2522         0              160.16552      160.16552      0.0063882008   160.16552    
Loop time of 517.76 on 1 procs for 20000 steps with 15000 atoms

Performance: 0.334 ns/day, 71.911 hours/ns, 38.628 timesteps/s, 579.419 katom-step/s
99.9% CPU use with 1 MPI tasks x 1 OpenMP threads

MPI task timing breakdown:
Section |  min time  |  avg time  |  max time  |%varavg| %total
---------------------------------------------------------------
Pair    | 133.65     | 133.65     | 133.65     |   0.0 | 25.81
Neigh   | 0          | 0          | 0          |   0.0 |  0.00
Comm    | 1.4051     | 1.4051     | 1.4051     |   0.0 |  0.27
Output  | 0.86839    | 0.86839    | 0.86839    |   0.0 |  0.17
Modify  | 377.84     | 377.84     | 377.84     |   0.0 | 72.98
Other   |            | 3.993      |            |       |  0.77

Nlocal:          15000 ave       15000 max       15000 min
Histogram: 1 0 0 0 0 0 0 0 0 0
Nghost:            707 ave         707 max         707 min
Histogram: 1 0 0 0 0 0 0 0 0 0
Neighs:              0 ave           0 max           0 min
Histogram: 1 0 0 0 0 0 0 0 0 0
FullNghs:        90000 ave       90000 max       90000 min
Histogram: 1 0 0 0 0 0 0 0 0 0

Total # of neighbors = 90000
Ave neighs/atom = 6
Neighbor list builds = 0
Dangerous builds = 0

print           "DYNAMICS_T${runtemp}_DONE"
DYNAMICS_T300_DONE
Total wall time: 0:08:37
