LAMMPS (10 Dec 2025 - Development - patch_10Dec2025-120-ga51f9ba0e7)
OMP_NUM_THREADS environment is not set. Defaulting to 1 thread.
  using 1 OpenMP thread(s) per MPI task
# Finite-T Langevin spin-dynamics stage for the Pd/Fe/Ir(111) effective model (see
# in.pdfeir_effective.lammps for the Hamiltonian, parameters, and their provenance).
# Run via run_scan.sh, one temperature per invocation: -var runtemp <K> -var runseed <int>
#
# Segfault root cause and fix (found by bisection, 2026-08-16):
#   `fix nve/spin` + a dynamics `run` was segfaulting on the real system on every LAMMPS
#   build tried, including a from-source rebuild with the SPIN package freshly enabled
#   (10 Dec 2025 dev snapshot). Bisected on a minimal reproducer down to: LAMMPS's
#   `pair_style hybrid/overlay` segfaults during force computation whenever it wraps
#   EXACTLY TWO SPIN-package pair substyles (confirmed for spin/exchange+spin/dmi and,
#   independently, spin/exchange+spin/magelec) -- reproduces regardless of langevin/spin,
#   fix declaration order, lattice geometry/boundary, or DMI direction, and is NOT specific
#   to this system: examples/SPIN/bfo (which combines exchange+magelec+dmi, THREE
#   substyles) ships with LAMMPS and runs fine on the exact same build. Adding a third,
#   physically-inert (zero-strength) spin/magelec substyle to pad hybrid/overlay to three
#   substyles avoids the crash entirely -- verified against this real system (600-atom
#   scaled check, 500-step Langevin run, smooth non-NaN energy relaxation) before adopting
#   it here. This is a LAMMPS bug (not a modeling error); the padding is a workaround,
#   not a physics change (magelec coefficient is exactly 0).

units           metal
atom_style      spin
dimension       3
boundary        p p f
atom_modify     map array

read_restart    restart.pdfeir_T0.equil
Reading restart file ...
  restart file = 10 Dec 2025, LAMMPS = 10 Dec 2025
  restoring atom style spin from restart
  orthogonal box = (0 0 -1.3575) to (407.25 235.1259 1.3575)
  1 by 1 by 1 MPI processor grid
  restoring pair style hybrid/overlay from restart
  15000 atoms
  read_restart CPU = 0.003 seconds

variable        rnn equal 2.715
variable        j_eff_eV equal 0.00368
variable        exch_a equal v_j_eff_eV*2.718281828/4.0
variable        rc_exch equal 1.2*${rnn}
variable        rc_exch equal 1.2*2.715
variable        d_eV equal 0.00139
variable        rc_dmi equal 1.2*${rnn}
variable        rc_dmi equal 1.2*2.715
variable        k_eV equal -0.0007

# --- workaround: pad hybrid/overlay to 3 spin substyles, see note above ---
pair_style      hybrid/overlay spin/exchange ${rc_exch} spin/dmi ${rc_dmi} spin/magelec ${rc_exch}
pair_style      hybrid/overlay spin/exchange 3.258 spin/dmi ${rc_dmi} spin/magelec ${rc_exch}
pair_style      hybrid/overlay spin/exchange 3.258 spin/dmi 3.258 spin/magelec ${rc_exch}
pair_style      hybrid/overlay spin/exchange 3.258 spin/dmi 3.258 spin/magelec 3.258
pair_coeff      * * spin/exchange exchange ${rc_exch} ${exch_a} 0.0 ${rnn} offset yes
pair_coeff      * * spin/exchange exchange 3.258 ${exch_a} 0.0 ${rnn} offset yes
pair_coeff      * * spin/exchange exchange 3.258 0.00250081928176 0.0 ${rnn} offset yes
pair_coeff      * * spin/exchange exchange 3.258 0.00250081928176 0.0 2.715 offset yes
pair_coeff      * * spin/dmi dmi ${rc_dmi} ${d_eV} 0.0 0.0 1.0
pair_coeff      * * spin/dmi dmi 3.258 ${d_eV} 0.0 0.0 1.0
pair_coeff      * * spin/dmi dmi 3.258 0.00139 0.0 0.0 1.0
pair_coeff      * * spin/magelec magelec ${rc_exch} 0.0 1.0 1.0 1.0   # zero strength: workaround only
pair_coeff      * * spin/magelec magelec 3.258 0.0 1.0 1.0 1.0   

neighbor        0.3 bin
neigh_modify    every 10 check yes delay 20

fix             1 all precession/spin zeeman 0.0 0.0 0.0 1.0 anisotropy ${k_eV} 0.0 0.0 1.0
fix             1 all precession/spin zeeman 0.0 0.0 0.0 1.0 anisotropy -0.0007 0.0 0.0 1.0
fix_modify      1 energy yes
fix             2 all langevin/spin ${runtemp} 0.05 ${runseed}
fix             2 all langevin/spin 205 0.05 ${runseed}
fix             2 all langevin/spin 205 0.05 63
fix             3 all nve/spin lattice frozen

timestep        0.0001

compute         out_mag all spin
compute         outsp all property/atom spx spy spz sp
thermo_style    custom step time temp pe etotal c_out_mag[4] c_out_mag[5]
thermo          200

dump            1 all custom 500 dump_pdfeir_T${runtemp}_s${runseed}.lammpstrj type x y z c_outsp[1] c_outsp[2] c_outsp[3]
dump            1 all custom 500 dump_pdfeir_T205_s${runseed}.lammpstrj type x y z c_outsp[1] c_outsp[2] c_outsp[3]
dump            1 all custom 500 dump_pdfeir_T205_s63.lammpstrj type x y z c_outsp[1] c_outsp[2] c_outsp[3]

# Equilibrate then production sample. 20k steps @ dt=0.0001 ps = 2 ps -- short first pass;
# extend once the T_c ~214K checkpoint from the paper needs finer sampling.
run             20000

CITE-CITE-CITE-CITE-CITE-CITE-CITE-CITE-CITE-CITE-CITE-CITE-CITE

Your simulation uses code contributions which should be cited:

- fix nve/spin command: https://doi.org/10.1016/j.jcp.2018.06.042

@article{tranchida2018massively,
title={Massively Parallel Symplectic Algorithm for Coupled Magnetic Spin    Dynamics and Molecular Dynamics},
author={Tranchida, J and Plimpton, S J and Thibaudeau, P and Thompson, A P},
journal={Journal of Computational Physics},
volume={372},
pages={406--425},
year={2018},
publisher={Elsevier}
doi={10.1016/j.jcp.2018.06.042}
}

CITE-CITE-CITE-CITE-CITE-CITE-CITE-CITE-CITE-CITE-CITE-CITE-CITE

Generated 0 of 0 mixed pair_coeff terms from geometric mixing rule
Neighbor list info ...
  update: every = 10 steps, delay = 20 steps, check = yes
  max neighbors/atom: 2000, page size: 100000
  master list distance cutoff = 3.558
  ghost atom cutoff = 3.558
  binsize = 1.779, bins = 229 133 2
  3 neighbor lists, perpetual/occasional/extra = 3 0 0
  (1) pair spin/exchange, perpetual
      attributes: full, newton on
      pair build: full/bin/atomonly
      stencil: full/bin/3d
      bin: standard
  (2) pair spin/dmi, perpetual, copy from (1)
      attributes: full, newton on
      pair build: copy
      stencil: none
      bin: none
  (3) pair spin/magelec, perpetual, copy from (1)
      attributes: full, newton on
      pair build: copy
      stencil: none
      bin: none
WARNING: Dump 1 includes no atom IDs and is not sorted by ID. This may complicate post-processing tasks or visualization (src/dump.cpp:220)
Per MPI rank memory allocation (min/avg/max) = 6.591 | 6.591 | 6.591 Mbytes
   Step          Time           Temp          PotEng         TotEng      c_out_mag[4]   c_out_mag[5] 
      2522   0.2522         0             -1.0275171     -1.0275171      0.030922721   -1.0275171    
      2600   0.26           0              5.8261149      5.8261149      0.031191521    5.8261149    
      2800   0.28           0              21.321148      21.321148      0.027524071    21.321148    
      3000   0.3            0              34.528101      34.528101      0.025118401    34.528101    
      3200   0.32           0              46.053642      46.053642      0.022677178    46.053642    
      3400   0.34           0              55.906384      55.906384      0.021294007    55.906384    
      3600   0.36           0              64.971539      64.971539      0.020537006    64.971539    
      3800   0.38           0              72.26453       72.26453       0.019887131    72.26453     
      4000   0.4            0              79.428697      79.428697      0.020586236    79.428697    
      4200   0.42           0              85.837407      85.837407      0.020881073    85.837407    
      4400   0.44           0              91.596667      91.596667      0.022652509    91.596667    
      4600   0.46           0              96.621134      96.621134      0.024786186    96.621134    
      4800   0.48           0              101.11502      101.11502      0.021412679    101.11502    
      5000   0.5            0              105.8431       105.8431       0.017050531    105.8431     
      5200   0.52           0              109.30794      109.30794      0.017300773    109.30794    
      5400   0.54           0              112.54719      112.54719      0.015562922    112.54719    
      5600   0.56           0              115.62278      115.62278      0.013261406    115.62278    
      5800   0.58           0              118.42269      118.42269      0.012410036    118.42269    
      6000   0.6            0              121.10802      121.10802      0.011192108    121.10802    
      6200   0.62           0              123.66049      123.66049      0.0093868419   123.66049    
      6400   0.64           0              126.23765      126.23765      0.0068462964   126.23765    
      6600   0.66           0              128.51663      128.51663      0.0063572487   128.51663    
      6800   0.68           0              130.62665      130.62665      0.005886794    130.62665    
      7000   0.7            0              132.0544       132.0544       0.0079920772   132.0544     
      7200   0.72           0              133.77581      133.77581      0.0076412655   133.77581    
      7400   0.74           0              135.61729      135.61729      0.0074845479   135.61729    
      7600   0.76           0              136.80256      136.80256      0.0053302878   136.80256    
      7800   0.78           0              138.30523      138.30523      0.0060973544   138.30523    
      8000   0.8            0              139.42587      139.42587      0.0079033515   139.42587    
      8200   0.82           0              140.16002      140.16002      0.01057612     140.16002    
      8400   0.84           0              141.32086      141.32086      0.012381152    141.32086    
      8600   0.86           0              142.19284      142.19284      0.012019743    142.19284    
      8800   0.88           0              142.60557      142.60557      0.010029435    142.60557    
      9000   0.9            0              143.47083      143.47083      0.0095019588   143.47083    
      9200   0.92           0              144.10413      144.10413      0.0093992821   144.10413    
      9400   0.94           0              144.15351      144.15351      0.0093288645   144.15351    
      9600   0.96           0              144.67739      144.67739      0.0058895035   144.67739    
      9800   0.98           0              145.31014      145.31014      0.0047877766   145.31014    
     10000   1              0              145.97018      145.97018      0.0063970189   145.97018    
     10200   1.02           0              146.88056      146.88056      0.0089657587   146.88056    
     10400   1.04           0              147.55848      147.55848      0.0080568972   147.55848    
     10600   1.06           0              147.83319      147.83319      0.010547255    147.83319    
     10800   1.08           0              147.99456      147.99456      0.010486536    147.99456    
     11000   1.1            0              148.17941      148.17941      0.010851859    148.17941    
     11200   1.12           0              148.52778      148.52778      0.012849405    148.52778    
     11400   1.14           0              149.7115       149.7115       0.013264264    149.7115     
     11600   1.16           0              149.53368      149.53368      0.014416916    149.53368    
     11800   1.18           0              150.18407      150.18407      0.016676843    150.18407    
     12000   1.2            0              150.44477      150.44477      0.017808395    150.44477    
     12200   1.22           0              151.09387      151.09387      0.018230264    151.09387    
     12400   1.24           0              151.64624      151.64624      0.018117837    151.64624    
     12600   1.26           0              151.61789      151.61789      0.017876613    151.61789    
     12800   1.28           0              151.52878      151.52878      0.015566098    151.52878    
     13000   1.3            0              151.98568      151.98568      0.016532424    151.98568    
     13200   1.32           0              152.08392      152.08392      0.013909417    152.08392    
     13400   1.34           0              151.96738      151.96738      0.010717927    151.96738    
     13600   1.36           0              152.39442      152.39442      0.010259994    152.39442    
     13800   1.38           0              152.22098      152.22098      0.010737078    152.22098    
     14000   1.4            0              152.70316      152.70316      0.010901907    152.70316    
     14200   1.42           0              152.47727      152.47727      0.010917751    152.47727    
     14400   1.44           0              152.6767       152.6767       0.010801533    152.6767     
     14600   1.46           0              152.63901      152.63901      0.011194622    152.63901    
     14800   1.48           0              152.89146      152.89146      0.011876804    152.89146    
     15000   1.5            0              152.86525      152.86525      0.012828238    152.86525    
     15200   1.52           0              153.04256      153.04256      0.0099437078   153.04256    
     15400   1.54           0              153.48162      153.48162      0.0092644262   153.48162    
     15600   1.56           0              153.30767      153.30767      0.0093672607   153.30767    
     15800   1.58           0              153.09496      153.09496      0.0098281268   153.09496    
     16000   1.6            0              153.3678       153.3678       0.0091887843   153.3678     
     16200   1.62           0              153.10309      153.10309      0.0090291254   153.10309    
     16400   1.64           0              153.07391      153.07391      0.0095242463   153.07391    
     16600   1.66           0              153.49347      153.49347      0.010334066    153.49347    
     16800   1.68           0              153.7459       153.7459       0.010120579    153.7459     
     17000   1.7            0              153.78943      153.78943      0.010901739    153.78943    
     17200   1.72           0              153.61898      153.61898      0.0098747339   153.61898    
     17400   1.74           0              153.78775      153.78775      0.010463156    153.78775    
     17600   1.76           0              153.73208      153.73208      0.012798367    153.73208    
     17800   1.78           0              154.02176      154.02176      0.009948545    154.02176    
     18000   1.8            0              153.75181      153.75181      0.0076768134   153.75181    
     18200   1.82           0              153.87271      153.87271      0.011054197    153.87271    
     18400   1.84           0              153.81407      153.81407      0.011648613    153.81407    
     18600   1.86           0              154.19044      154.19044      0.014122584    154.19044    
     18800   1.88           0              154.04441      154.04441      0.012056658    154.04441    
     19000   1.9            0              154.03948      154.03948      0.010193211    154.03948    
     19200   1.92           0              154.3929       154.3929       0.0056012417   154.3929     
     19400   1.94           0              154.11927      154.11927      0.005721479    154.11927    
     19600   1.96           0              154.02777      154.02777      0.0088799998   154.02777    
     19800   1.98           0              154.10726      154.10726      0.0089193233   154.10726    
     20000   2              0              154.24879      154.24879      0.010562451    154.24879    
     20200   2.02           0              154.65306      154.65306      0.011984587    154.65306    
     20400   2.04           0              154.9153       154.9153       0.011029925    154.9153     
     20600   2.06           0              154.68155      154.68155      0.010899408    154.68155    
     20800   2.08           0              154.4702       154.4702       0.0072861236   154.4702     
     21000   2.1            0              154.69417      154.69417      0.0056899645   154.69417    
     21200   2.12           0              154.48178      154.48178      0.0051024655   154.48178    
     21400   2.14           0              154.40284      154.40284      0.0026957936   154.40284    
     21600   2.16           0              154.55657      154.55657      0.0031333415   154.55657    
     21800   2.18           0              154.18003      154.18003      0.0049766642   154.18003    
     22000   2.2            0              154.48054      154.48054      0.0070464814   154.48054    
     22200   2.22           0              154.69178      154.69178      0.0051306995   154.69178    
     22400   2.24           0              154.90863      154.90863      0.0073772041   154.90863    
     22522   2.2522         0              154.9993       154.9993       0.0061878934   154.9993     
Loop time of 545.764 on 1 procs for 20000 steps with 15000 atoms

Performance: 0.317 ns/day, 75.801 hours/ns, 36.646 timesteps/s, 549.688 katom-step/s
99.9% CPU use with 1 MPI tasks x 1 OpenMP threads

MPI task timing breakdown:
Section |  min time  |  avg time  |  max time  |%varavg| %total
---------------------------------------------------------------
Pair    | 139.89     | 139.89     | 139.89     |   0.0 | 25.63
Neigh   | 0          | 0          | 0          |   0.0 |  0.00
Comm    | 1.4708     | 1.4708     | 1.4708     |   0.0 |  0.27
Output  | 0.90863    | 0.90863    | 0.90863    |   0.0 |  0.17
Modify  | 399.64     | 399.64     | 399.64     |   0.0 | 73.23
Other   |            | 3.853      |            |       |  0.71

Nlocal:          15000 ave       15000 max       15000 min
Histogram: 1 0 0 0 0 0 0 0 0 0
Nghost:            707 ave         707 max         707 min
Histogram: 1 0 0 0 0 0 0 0 0 0
Neighs:              0 ave           0 max           0 min
Histogram: 1 0 0 0 0 0 0 0 0 0
FullNghs:        90000 ave       90000 max       90000 min
Histogram: 1 0 0 0 0 0 0 0 0 0

Total # of neighbors = 90000
Ave neighs/atom = 6
Neighbor list builds = 0
Dangerous builds = 0

print           "DYNAMICS_T${runtemp}_DONE"
DYNAMICS_T205_DONE
Total wall time: 0:09:05
