LAMMPS (10 Dec 2025 - Development - patch_10Dec2025-120-ga51f9ba0e7)
OMP_NUM_THREADS environment is not set. Defaulting to 1 thread.
  using 1 OpenMP thread(s) per MPI task
# Finite-T Langevin spin-dynamics stage for the Pd/Fe/Ir(111) effective model (see
# in.pdfeir_effective.lammps for the Hamiltonian, parameters, and their provenance).
# Run via run_scan.sh, one temperature per invocation: -var runtemp <K> -var runseed <int>
#
# Segfault root cause and fix (found by bisection, 2026-08-16):
#   `fix nve/spin` + a dynamics `run` was segfaulting on the real system on every LAMMPS
#   build tried, including a from-source rebuild with the SPIN package freshly enabled
#   (10 Dec 2025 dev snapshot). Bisected on a minimal reproducer down to: LAMMPS's
#   `pair_style hybrid/overlay` segfaults during force computation whenever it wraps
#   EXACTLY TWO SPIN-package pair substyles (confirmed for spin/exchange+spin/dmi and,
#   independently, spin/exchange+spin/magelec) -- reproduces regardless of langevin/spin,
#   fix declaration order, lattice geometry/boundary, or DMI direction, and is NOT specific
#   to this system: examples/SPIN/bfo (which combines exchange+magelec+dmi, THREE
#   substyles) ships with LAMMPS and runs fine on the exact same build. Adding a third,
#   physically-inert (zero-strength) spin/magelec substyle to pad hybrid/overlay to three
#   substyles avoids the crash entirely -- verified against this real system (600-atom
#   scaled check, 500-step Langevin run, smooth non-NaN energy relaxation) before adopting
#   it here. This is a LAMMPS bug (not a modeling error); the padding is a workaround,
#   not a physics change (magelec coefficient is exactly 0).

units           metal
atom_style      spin
dimension       3
boundary        p p f
atom_modify     map array

read_restart    restart.pdfeir_T0.equil
Reading restart file ...
  restart file = 10 Dec 2025, LAMMPS = 10 Dec 2025
  restoring atom style spin from restart
  orthogonal box = (0 0 -1.3575) to (407.25 235.1259 1.3575)
  1 by 1 by 1 MPI processor grid
  restoring pair style hybrid/overlay from restart
  15000 atoms
  read_restart CPU = 0.005 seconds

variable        rnn equal 2.715
variable        j_eff_eV equal 0.00368
variable        exch_a equal v_j_eff_eV*2.718281828/4.0
variable        rc_exch equal 1.2*${rnn}
variable        rc_exch equal 1.2*2.715
variable        d_eV equal 0.00139
variable        rc_dmi equal 1.2*${rnn}
variable        rc_dmi equal 1.2*2.715
variable        k_eV equal -0.0007

# --- workaround: pad hybrid/overlay to 3 spin substyles, see note above ---
pair_style      hybrid/overlay spin/exchange ${rc_exch} spin/dmi ${rc_dmi} spin/magelec ${rc_exch}
pair_style      hybrid/overlay spin/exchange 3.258 spin/dmi ${rc_dmi} spin/magelec ${rc_exch}
pair_style      hybrid/overlay spin/exchange 3.258 spin/dmi 3.258 spin/magelec ${rc_exch}
pair_style      hybrid/overlay spin/exchange 3.258 spin/dmi 3.258 spin/magelec 3.258
pair_coeff      * * spin/exchange exchange ${rc_exch} ${exch_a} 0.0 ${rnn} offset yes
pair_coeff      * * spin/exchange exchange 3.258 ${exch_a} 0.0 ${rnn} offset yes
pair_coeff      * * spin/exchange exchange 3.258 0.00250081928176 0.0 ${rnn} offset yes
pair_coeff      * * spin/exchange exchange 3.258 0.00250081928176 0.0 2.715 offset yes
pair_coeff      * * spin/dmi dmi ${rc_dmi} ${d_eV} 0.0 0.0 1.0
pair_coeff      * * spin/dmi dmi 3.258 ${d_eV} 0.0 0.0 1.0
pair_coeff      * * spin/dmi dmi 3.258 0.00139 0.0 0.0 1.0
pair_coeff      * * spin/magelec magelec ${rc_exch} 0.0 1.0 1.0 1.0   # zero strength: workaround only
pair_coeff      * * spin/magelec magelec 3.258 0.0 1.0 1.0 1.0   

neighbor        0.3 bin
neigh_modify    every 10 check yes delay 20

fix             1 all precession/spin zeeman 0.0 0.0 0.0 1.0 anisotropy ${k_eV} 0.0 0.0 1.0
fix             1 all precession/spin zeeman 0.0 0.0 0.0 1.0 anisotropy -0.0007 0.0 0.0 1.0
fix_modify      1 energy yes
fix             2 all langevin/spin ${runtemp} 0.05 ${runseed}
fix             2 all langevin/spin 190 0.05 ${runseed}
fix             2 all langevin/spin 190 0.05 42
fix             3 all nve/spin lattice frozen

timestep        0.0001

compute         out_mag all spin
compute         outsp all property/atom spx spy spz sp
thermo_style    custom step time temp pe etotal c_out_mag[4] c_out_mag[5]
thermo          200

dump            1 all custom 500 dump_pdfeir_T${runtemp}_s${runseed}.lammpstrj type x y z c_outsp[1] c_outsp[2] c_outsp[3]
dump            1 all custom 500 dump_pdfeir_T190_s${runseed}.lammpstrj type x y z c_outsp[1] c_outsp[2] c_outsp[3]
dump            1 all custom 500 dump_pdfeir_T190_s42.lammpstrj type x y z c_outsp[1] c_outsp[2] c_outsp[3]

# Equilibrate then production sample. 20k steps @ dt=0.0001 ps = 2 ps -- short first pass;
# extend once the T_c ~214K checkpoint from the paper needs finer sampling.
run             20000

CITE-CITE-CITE-CITE-CITE-CITE-CITE-CITE-CITE-CITE-CITE-CITE-CITE

Your simulation uses code contributions which should be cited:

- fix nve/spin command: https://doi.org/10.1016/j.jcp.2018.06.042

@article{tranchida2018massively,
title={Massively Parallel Symplectic Algorithm for Coupled Magnetic Spin    Dynamics and Molecular Dynamics},
author={Tranchida, J and Plimpton, S J and Thibaudeau, P and Thompson, A P},
journal={Journal of Computational Physics},
volume={372},
pages={406--425},
year={2018},
publisher={Elsevier}
doi={10.1016/j.jcp.2018.06.042}
}

CITE-CITE-CITE-CITE-CITE-CITE-CITE-CITE-CITE-CITE-CITE-CITE-CITE

Generated 0 of 0 mixed pair_coeff terms from geometric mixing rule
Neighbor list info ...
  update: every = 10 steps, delay = 20 steps, check = yes
  max neighbors/atom: 2000, page size: 100000
  master list distance cutoff = 3.558
  ghost atom cutoff = 3.558
  binsize = 1.779, bins = 229 133 2
  3 neighbor lists, perpetual/occasional/extra = 3 0 0
  (1) pair spin/exchange, perpetual
      attributes: full, newton on
      pair build: full/bin/atomonly
      stencil: full/bin/3d
      bin: standard
  (2) pair spin/dmi, perpetual, copy from (1)
      attributes: full, newton on
      pair build: copy
      stencil: none
      bin: none
  (3) pair spin/magelec, perpetual, copy from (1)
      attributes: full, newton on
      pair build: copy
      stencil: none
      bin: none
WARNING: Dump 1 includes no atom IDs and is not sorted by ID. This may complicate post-processing tasks or visualization (src/dump.cpp:220)
Per MPI rank memory allocation (min/avg/max) = 6.591 | 6.591 | 6.591 Mbytes
   Step          Time           Temp          PotEng         TotEng      c_out_mag[4]   c_out_mag[5] 
      2522   0.2522         0             -1.0275171     -1.0275171      0.030922721   -1.0275171    
      2600   0.26           0              5.2770585      5.2770585      0.030536123    5.2770585    
      2800   0.28           0              19.790821      19.790821      0.028827864    19.790821    
      3000   0.3            0              32.099953      32.099953      0.02832477     32.099953    
      3200   0.32           0              42.605897      42.605897      0.026486377    42.605897    
      3400   0.34           0              51.793981      51.793981      0.025779084    51.793981    
      3600   0.36           0              59.992703      59.992703      0.025522283    59.992703    
      3800   0.38           0              67.491871      67.491871      0.026177361    67.491871    
      4000   0.4            0              74.10007       74.10007       0.026001633    74.10007     
      4200   0.42           0              81.061925      81.061925      0.026432015    81.061925    
      4400   0.44           0              85.859664      85.859664      0.024929765    85.859664    
      4600   0.46           0              90.706285      90.706285      0.021818881    90.706285    
      4800   0.48           0              95.624502      95.624502      0.022651465    95.624502    
      5000   0.5            0              99.642665      99.642665      0.020750722    99.642665    
      5200   0.52           0              103.58725      103.58725      0.021576498    103.58725    
      5400   0.54           0              106.87661      106.87661      0.020525326    106.87661    
      5600   0.56           0              110.44829      110.44829      0.021697545    110.44829    
      5800   0.58           0              113.26113      113.26113      0.019561963    113.26113    
      6000   0.6            0              115.47396      115.47396      0.018681491    115.47396    
      6200   0.62           0              117.86201      117.86201      0.019688708    117.86201    
      6400   0.64           0              120.17903      120.17903      0.020064435    120.17903    
      6600   0.66           0              122.41183      122.41183      0.020105657    122.41183    
      6800   0.68           0              124.17572      124.17572      0.019548522    124.17572    
      7000   0.7            0              126.25425      126.25425      0.01868668     126.25425    
      7200   0.72           0              128.21071      128.21071      0.019581467    128.21071    
      7400   0.74           0              129.87675      129.87675      0.01815736     129.87675    
      7600   0.76           0              131.77997      131.77997      0.016452042    131.77997    
      7800   0.78           0              133.01705      133.01705      0.015646972    133.01705    
      8000   0.8            0              134.37247      134.37247      0.01521908     134.37247    
      8200   0.82           0              135.65032      135.65032      0.01390735     135.65032    
      8400   0.84           0              136.70386      136.70386      0.014183349    136.70386    
      8600   0.86           0              138.00855      138.00855      0.012997953    138.00855    
      8800   0.88           0              138.73629      138.73629      0.011477175    138.73629    
      9000   0.9            0              139.57093      139.57093      0.010332253    139.57093    
      9200   0.92           0              140.24244      140.24244      0.010079331    140.24244    
      9400   0.94           0              141.18599      141.18599      0.0092097553   141.18599    
      9600   0.96           0              141.52469      141.52469      0.0063615907   141.52469    
      9800   0.98           0              142.64255      142.64255      0.0054869362   142.64255    
     10000   1              0              143.04028      143.04028      0.0036684018   143.04028    
     10200   1.02           0              143.50055      143.50055      0.002372347    143.50055    
     10400   1.04           0              143.84274      143.84274      0.0034687955   143.84274    
     10600   1.06           0              144.53449      144.53449      0.0060068824   144.53449    
     10800   1.08           0              145.37217      145.37217      0.0058307985   145.37217    
     11000   1.1            0              145.80911      145.80911      0.0060028501   145.80911    
     11200   1.12           0              146.1041       146.1041       0.0063554233   146.1041     
     11400   1.14           0              146.67361      146.67361      0.0074232374   146.67361    
     11600   1.16           0              146.77631      146.77631      0.0085903883   146.77631    
     11800   1.18           0              146.99359      146.99359      0.0049038297   146.99359    
     12000   1.2            0              147.19512      147.19512      0.0034208794   147.19512    
     12200   1.22           0              147.81159      147.81159      0.0034979559   147.81159    
     12400   1.24           0              148.21851      148.21851      0.003271456    148.21851    
     12600   1.26           0              148.98339      148.98339      0.0063658334   148.98339    
     12800   1.28           0              149.10276      149.10276      0.0072839945   149.10276    
     13000   1.3            0              149.34451      149.34451      0.0068673005   149.34451    
     13200   1.32           0              149.86103      149.86103      0.0074442564   149.86103    
     13400   1.34           0              150.05326      150.05326      0.00808267     150.05326    
     13600   1.36           0              149.5897       149.5897       0.0081920425   149.5897     
     13800   1.38           0              149.74702      149.74702      0.0082878811   149.74702    
     14000   1.4            0              149.91473      149.91473      0.0073734554   149.91473    
     14200   1.42           0              150.54172      150.54172      0.0076355304   150.54172    
     14400   1.44           0              150.87045      150.87045      0.0052840626   150.87045    
     14600   1.46           0              150.984        150.984        0.0060148815   150.984      
     14800   1.48           0              150.91056      150.91056      0.0077869913   150.91056    
     15000   1.5            0              150.97351      150.97351      0.0066159175   150.97351    
     15200   1.52           0              151.10868      151.10868      0.0048451446   151.10868    
     15400   1.54           0              151.11082      151.11082      0.0049721377   151.11082    
     15600   1.56           0              151.26273      151.26273      0.0062524621   151.26273    
     15800   1.58           0              151.23373      151.23373      0.0072184572   151.23373    
     16000   1.6            0              151.75835      151.75835      0.006570039    151.75835    
     16200   1.62           0              151.68355      151.68355      0.0059797407   151.68355    
     16400   1.64           0              152.1514       152.1514       0.0068346847   152.1514     
     16600   1.66           0              152.49271      152.49271      0.005782292    152.49271    
     16800   1.68           0              152.48297      152.48297      0.0057870716   152.48297    
     17000   1.7            0              152.22747      152.22747      0.0056953189   152.22747    
     17200   1.72           0              152.43177      152.43177      0.0057264864   152.43177    
     17400   1.74           0              152.64714      152.64714      0.0073858092   152.64714    
     17600   1.76           0              152.49895      152.49895      0.0068729596   152.49895    
     17800   1.78           0              152.40504      152.40504      0.006399811    152.40504    
     18000   1.8            0              152.56974      152.56974      0.0081086989   152.56974    
     18200   1.82           0              152.61231      152.61231      0.0084083334   152.61231    
     18400   1.84           0              152.48777      152.48777      0.007416353    152.48777    
     18600   1.86           0              152.61848      152.61848      0.0082305714   152.61848    
     18800   1.88           0              152.65884      152.65884      0.0085128989   152.65884    
     19000   1.9            0              152.68242      152.68242      0.01196451     152.68242    
     19200   1.92           0              152.7352       152.7352       0.0099755732   152.7352     
     19400   1.94           0              153.05273      153.05273      0.0098806542   153.05273    
     19600   1.96           0              153.11264      153.11264      0.0092568642   153.11264    
     19800   1.98           0              152.9572       152.9572       0.010263925    152.9572     
     20000   2              0              152.74325      152.74325      0.01104865     152.74325    
     20200   2.02           0              152.96734      152.96734      0.010554906    152.96734    
     20400   2.04           0              152.5637       152.5637       0.0096822802   152.5637     
     20600   2.06           0              152.57866      152.57866      0.010039271    152.57866    
     20800   2.08           0              153.1042       153.1042       0.012198599    153.1042     
     21000   2.1            0              153.01371      153.01371      0.012496682    153.01371    
     21200   2.12           0              152.8776       152.8776       0.011597211    152.8776     
     21400   2.14           0              153.41467      153.41467      0.010710686    153.41467    
     21600   2.16           0              152.96255      152.96255      0.011960784    152.96255    
     21800   2.18           0              153.04389      153.04389      0.011860455    153.04389    
     22000   2.2            0              152.78592      152.78592      0.012613636    152.78592    
     22200   2.22           0              152.60203      152.60203      0.013149983    152.60203    
     22400   2.24           0              152.58778      152.58778      0.013966469    152.58778    
     22522   2.2522         0              152.4463       152.4463       0.012923074    152.4463     
Loop time of 580.721 on 1 procs for 20000 steps with 15000 atoms

Performance: 0.298 ns/day, 80.656 hours/ns, 34.440 timesteps/s, 516.599 katom-step/s
100.0% CPU use with 1 MPI tasks x 1 OpenMP threads

MPI task timing breakdown:
Section |  min time  |  avg time  |  max time  |%varavg| %total
---------------------------------------------------------------
Pair    | 146.54     | 146.54     | 146.54     |   0.0 | 25.23
Neigh   | 0          | 0          | 0          |   0.0 |  0.00
Comm    | 0.48006    | 0.48006    | 0.48006    |   0.0 |  0.08
Output  | 0.90577    | 0.90577    | 0.90577    |   0.0 |  0.16
Modify  | 431.59     | 431.59     | 431.59     |   0.0 | 74.32
Other   |            | 1.208      |            |       |  0.21

Nlocal:          15000 ave       15000 max       15000 min
Histogram: 1 0 0 0 0 0 0 0 0 0
Nghost:            707 ave         707 max         707 min
Histogram: 1 0 0 0 0 0 0 0 0 0
Neighs:              0 ave           0 max           0 min
Histogram: 1 0 0 0 0 0 0 0 0 0
FullNghs:        90000 ave       90000 max       90000 min
Histogram: 1 0 0 0 0 0 0 0 0 0

Total # of neighbors = 90000
Ave neighs/atom = 6
Neighbor list builds = 0
Dangerous builds = 0

print           "DYNAMICS_T${runtemp}_DONE"
DYNAMICS_T190_DONE
Total wall time: 0:09:40
