LAMMPS (10 Dec 2025 - Development - patch_10Dec2025-120-ga51f9ba0e7)
OMP_NUM_THREADS environment is not set. Defaulting to 1 thread.
  using 1 OpenMP thread(s) per MPI task
# Finite-T Langevin spin-dynamics stage for mp-754090 (Li4Fe2TeWO12), placeholder-DMI
# effective model -- see in.mp754090_effective.lammps for Hamiltonian, J derivation from
# real DFT, and the explicit "DMI is a placeholder, not DFT" caveat. Do not read physical
# conclusions (Tc, textures, chirality) off this run; it exists to get a first qualitative
# look while the real noncollinear+SOC DFT job for D is pending.
#
# Run via run_scan_parallel_mp754090.sh, one temperature/seed per invocation:
#   -var runtemp <K> -var runseed <int>
#
# Same LAMMPS-build workaround as in.pdfeir_dynamics.lammps: hybrid/overlay segfaults with
# exactly 2 spin substyles on this build, padded to 3 with a zero-strength spin/magelec term.

units           metal
atom_style      spin
dimension       3
boundary        p p p
atom_modify     map array

read_restart    restart.mp754090_T0.equil
Reading restart file ...
  restart file = 10 Dec 2025, LAMMPS = 10 Dec 2025
  restoring atom style spin from restart
  triclinic box = (0 0 0) to (86.604109 72.44143 33.758371) with tilt (47.827887 47.809739 49.151162)
WARNING: Triclinic box skew is large. LAMMPS will run inefficiently. (src/domain.cpp:221)
  1 by 1 by 1 MPI processor grid
  restoring pair style hybrid/overlay from restart
  2048 atoms
  read_restart CPU = 0.001 seconds

variable        j_eff_eV equal 0.012058385
variable        d_shell equal 5.132075
variable        exch_a equal v_j_eff_eV*2.718281828/4.0
variable        rc_exch equal 5.25
variable        d_eV equal 0.003
variable        rc_dmi equal 5.25

pair_style      hybrid/overlay spin/exchange ${rc_exch} spin/dmi ${rc_dmi} spin/magelec ${rc_exch}
pair_style      hybrid/overlay spin/exchange 5.25 spin/dmi ${rc_dmi} spin/magelec ${rc_exch}
pair_style      hybrid/overlay spin/exchange 5.25 spin/dmi 5.25 spin/magelec ${rc_exch}
pair_style      hybrid/overlay spin/exchange 5.25 spin/dmi 5.25 spin/magelec 5.25
pair_coeff      * * spin/exchange exchange ${rc_exch} ${exch_a} 0.0 ${d_shell} offset yes
pair_coeff      * * spin/exchange exchange 5.25 ${exch_a} 0.0 ${d_shell} offset yes
pair_coeff      * * spin/exchange exchange 5.25 0.00819452220513194 0.0 ${d_shell} offset yes
pair_coeff      * * spin/exchange exchange 5.25 0.00819452220513194 0.0 5.132075 offset yes
pair_coeff      * * spin/dmi dmi ${rc_dmi} ${d_eV} 0.0 0.0 1.0
pair_coeff      * * spin/dmi dmi 5.25 ${d_eV} 0.0 0.0 1.0
pair_coeff      * * spin/dmi dmi 5.25 0.003 0.0 0.0 1.0
pair_coeff      * * spin/magelec magelec ${rc_exch} 0.0 1.0 1.0 1.0   # zero strength: segfault workaround only
pair_coeff      * * spin/magelec magelec 5.25 0.0 1.0 1.0 1.0   

neighbor        0.3 bin
neigh_modify    every 10 check yes delay 20

fix             1 all precession/spin zeeman 0.0 0.0 0.0 1.0
fix_modify      1 energy yes
fix             2 all langevin/spin ${runtemp} 0.05 ${runseed}
fix             2 all langevin/spin 50 0.05 ${runseed}
fix             2 all langevin/spin 50 0.05 21
fix             3 all nve/spin lattice frozen

timestep        0.0001

compute         out_mag all spin
compute         outsp all property/atom spx spy spz sp
thermo_style    custom step time temp pe etotal c_out_mag[4] c_out_mag[5]
thermo          200

dump            1 all custom 500 dump_mp754090_T${runtemp}_s${runseed}.lammpstrj type x y z c_outsp[1] c_outsp[2] c_outsp[3]
dump            1 all custom 500 dump_mp754090_T50_s${runseed}.lammpstrj type x y z c_outsp[1] c_outsp[2] c_outsp[3]
dump            1 all custom 500 dump_mp754090_T50_s21.lammpstrj type x y z c_outsp[1] c_outsp[2] c_outsp[3]

# Coarse first pass -- 20k steps @ dt=0.0001 ps = 2 ps, same length as pdfeir's first pass.
run             20000

CITE-CITE-CITE-CITE-CITE-CITE-CITE-CITE-CITE-CITE-CITE-CITE-CITE

Your simulation uses code contributions which should be cited:

- fix nve/spin command: https://doi.org/10.1016/j.jcp.2018.06.042

@article{tranchida2018massively,
title={Massively Parallel Symplectic Algorithm for Coupled Magnetic Spin    Dynamics and Molecular Dynamics},
author={Tranchida, J and Plimpton, S J and Thibaudeau, P and Thompson, A P},
journal={Journal of Computational Physics},
volume={372},
pages={406--425},
year={2018},
publisher={Elsevier}
doi={10.1016/j.jcp.2018.06.042}
}

CITE-CITE-CITE-CITE-CITE-CITE-CITE-CITE-CITE-CITE-CITE-CITE-CITE

Generated 0 of 0 mixed pair_coeff terms from geometric mixing rule
Neighbor list info ...
  update: every = 10 steps, delay = 20 steps, check = yes
  max neighbors/atom: 2000, page size: 100000
  master list distance cutoff = 5.55
  ghost atom cutoff = 5.55
  binsize = 2.775, bins = 66 44 13
  3 neighbor lists, perpetual/occasional/extra = 3 0 0
  (1) pair spin/exchange, perpetual
      attributes: full, newton on
      pair build: full/bin/atomonly
      stencil: full/bin/3d
      bin: standard
  (2) pair spin/dmi, perpetual, copy from (1)
      attributes: full, newton on
      pair build: copy
      stencil: none
      bin: none
  (3) pair spin/magelec, perpetual, copy from (1)
      attributes: full, newton on
      pair build: copy
      stencil: none
      bin: none
WARNING: Dump 1 includes no atom IDs and is not sorted by ID. This may complicate post-processing tasks or visualization (src/dump.cpp:220)
Per MPI rank memory allocation (min/avg/max) = 5.919 | 5.919 | 5.919 Mbytes
   Step          Time           Temp          PotEng         TotEng      c_out_mag[4]   c_out_mag[5] 
       396   0.0396         0              0.16923922     0.16923922     0.071743915    0.16923922   
       400   0.04           0              0.20864567     0.20864567     0.071766332    0.20864567   
       600   0.06           0              1.8932557      1.8932557      0.072569506    1.8932557    
       800   0.08           0              3.3320552      3.3320552      0.071154845    3.3320552    
      1000   0.1            0              4.3293947      4.3293947      0.074369536    4.3293947    
      1200   0.12           0              5.0871487      5.0871487      0.073634779    5.0871487    
      1400   0.14           0              5.8088317      5.8088317      0.073426822    5.8088317    
      1600   0.16           0              6.3546774      6.3546774      0.074466772    6.3546774    
      1800   0.18           0              6.6618279      6.6618279      0.074013349    6.6618279    
      2000   0.2            0              6.819          6.819          0.075219832    6.819        
      2200   0.22           0              7.1439836      7.1439836      0.072167217    7.1439836    
      2400   0.24           0              7.2731638      7.2731638      0.073004487    7.2731638    
      2600   0.26           0              7.6267001      7.6267001      0.070711798    7.6267001    
      2800   0.28           0              7.9067193      7.9067193      0.067968404    7.9067193    
      3000   0.3            0              8.2306866      8.2306866      0.069758079    8.2306866    
      3200   0.32           0              8.3084803      8.3084803      0.069999243    8.3084803    
      3400   0.34           0              8.2927017      8.2927017      0.070725865    8.2927017    
      3600   0.36           0              8.4357338      8.4357338      0.069611276    8.4357338    
      3800   0.38           0              8.3098548      8.3098548      0.071583716    8.3098548    
      4000   0.4            0              8.2511934      8.2511934      0.075531016    8.2511934    
      4200   0.42           0              8.4294575      8.4294575      0.078047354    8.4294575    
      4400   0.44           0              8.7140444      8.7140444      0.076069774    8.7140444    
      4600   0.46           0              8.6084581      8.6084581      0.075461672    8.6084581    
      4800   0.48           0              8.6189497      8.6189497      0.080079677    8.6189497    
      5000   0.5            0              8.8442742      8.8442742      0.078782564    8.8442742    
      5200   0.52           0              8.4769525      8.4769525      0.077319805    8.4769525    
      5400   0.54           0              8.6289625      8.6289625      0.076891739    8.6289625    
      5600   0.56           0              8.6656573      8.6656573      0.076613439    8.6656573    
      5800   0.58           0              8.6009206      8.6009206      0.076207692    8.6009206    
      6000   0.6            0              8.6376421      8.6376421      0.074727772    8.6376421    
      6200   0.62           0              8.4382268      8.4382268      0.07483004     8.4382268    
      6400   0.64           0              8.4881091      8.4881091      0.076862147    8.4881091    
      6600   0.66           0              8.6854605      8.6854605      0.076814307    8.6854605    
      6800   0.68           0              8.7436521      8.7436521      0.080113944    8.7436521    
      7000   0.7            0              8.8775652      8.8775652      0.081840056    8.8775652    
      7200   0.72           0              8.9157598      8.9157598      0.079632823    8.9157598    
      7400   0.74           0              8.8335654      8.8335654      0.080008421    8.8335654    
      7600   0.76           0              8.9442881      8.9442881      0.08262403     8.9442881    
      7800   0.78           0              8.8707311      8.8707311      0.082940787    8.8707311    
      8000   0.8            0              8.8500955      8.8500955      0.08102674     8.8500955    
      8200   0.82           0              8.941481       8.941481       0.081074057    8.941481     
      8400   0.84           0              9.0147084      9.0147084      0.083564004    9.0147084    
      8600   0.86           0              8.9742747      8.9742747      0.083200524    8.9742747    
      8800   0.88           0              8.8862022      8.8862022      0.083962145    8.8862022    
      9000   0.9            0              8.8239608      8.8239608      0.08244397     8.8239608    
      9200   0.92           0              8.8068023      8.8068023      0.083306245    8.8068023    
      9400   0.94           0              8.8966303      8.8966303      0.084457116    8.8966303    
      9600   0.96           0              9.0396969      9.0396969      0.085901145    9.0396969    
      9800   0.98           0              8.9818063      8.9818063      0.085934647    8.9818063    
     10000   1              0              8.924419       8.924419       0.088218451    8.924419     
     10200   1.02           0              8.9800824      8.9800824      0.088693025    8.9800824    
     10400   1.04           0              8.884241       8.884241       0.087708888    8.884241     
     10600   1.06           0              8.912429       8.912429       0.088531414    8.912429     
     10800   1.08           0              8.8982249      8.8982249      0.087392747    8.8982249    
     11000   1.1            0              8.8425088      8.8425088      0.08456621     8.8425088    
     11200   1.12           0              8.9522753      8.9522753      0.085787907    8.9522753    
     11400   1.14           0              8.8789055      8.8789055      0.08807424     8.8789055    
     11600   1.16           0              8.865604       8.865604       0.087131084    8.865604     
     11800   1.18           0              8.8550453      8.8550453      0.086261527    8.8550453    
     12000   1.2            0              8.7440178      8.7440178      0.086925581    8.7440178    
     12200   1.22           0              8.871684       8.871684       0.087012967    8.871684     
     12400   1.24           0              9.0728575      9.0728575      0.086861085    9.0728575    
     12600   1.26           0              9.0799006      9.0799006      0.085718303    9.0799006    
     12800   1.28           0              9.0836279      9.0836279      0.085949987    9.0836279    
     13000   1.3            0              8.9516923      8.9516923      0.08570245     8.9516923    
     13200   1.32           0              8.9854074      8.9854074      0.086180101    8.9854074    
     13400   1.34           0              8.9276045      8.9276045      0.08874114     8.9276045    
     13600   1.36           0              9.2244518      9.2244518      0.090273358    9.2244518    
     13800   1.38           0              9.1696306      9.1696306      0.087788215    9.1696306    
     14000   1.4            0              8.9579066      8.9579066      0.08945279     8.9579066    
     14200   1.42           0              8.9688048      8.9688048      0.09028181     8.9688048    
     14400   1.44           0              9.1740011      9.1740011      0.089450287    9.1740011    
     14600   1.46           0              9.303728       9.303728       0.086164581    9.303728     
     14800   1.48           0              9.3087829      9.3087829      0.083340957    9.3087829    
     15000   1.5            0              9.175425       9.175425       0.083245663    9.175425     
     15200   1.52           0              9.1434831      9.1434831      0.08211749     9.1434831    
     15400   1.54           0              9.2194074      9.2194074      0.081596854    9.2194074    
     15600   1.56           0              9.0942347      9.0942347      0.078052798    9.0942347    
     15800   1.58           0              8.862547       8.862547       0.078885956    8.862547     
     16000   1.6            0              9.1091148      9.1091148      0.077302385    9.1091148    
     16200   1.62           0              9.0315274      9.0315274      0.077262862    9.0315274    
     16400   1.64           0              9.0876632      9.0876632      0.077152295    9.0876632    
     16600   1.66           0              9.0405003      9.0405003      0.076436604    9.0405003    
     16800   1.68           0              9.0758654      9.0758654      0.076588177    9.0758654    
     17000   1.7            0              8.9565951      8.9565951      0.074474008    8.9565951    
     17200   1.72           0              8.8638288      8.8638288      0.072988217    8.8638288    
     17400   1.74           0              8.8247572      8.8247572      0.069298179    8.8247572    
     17600   1.76           0              8.9750748      8.9750748      0.067565907    8.9750748    
     17800   1.78           0              8.9976609      8.9976609      0.066811284    8.9976609    
     18000   1.8            0              9.1883882      9.1883882      0.06584558     9.1883882    
     18200   1.82           0              9.4213328      9.4213328      0.063569486    9.4213328    
     18400   1.84           0              9.3619386      9.3619386      0.061755776    9.3619386    
     18600   1.86           0              9.2597723      9.2597723      0.061332001    9.2597723    
     18800   1.88           0              9.0589206      9.0589206      0.061105612    9.0589206    
     19000   1.9            0              9.0459353      9.0459353      0.061145051    9.0459353    
     19200   1.92           0              9.2427878      9.2427878      0.062117975    9.2427878    
     19400   1.94           0              9.2516484      9.2516484      0.063519797    9.2516484    
     19600   1.96           0              9.2234165      9.2234165      0.061468675    9.2234165    
     19800   1.98           0              9.0834217      9.0834217      0.058049059    9.0834217    
     20000   2              0              9.2793335      9.2793335      0.059292396    9.2793335    
     20200   2.02           0              9.3109821      9.3109821      0.057497376    9.3109821    
     20396   2.0396         0              9.2295067      9.2295067      0.056719942    9.2295067    
Loop time of 77.0582 on 1 procs for 20000 steps with 2048 atoms

Performance: 2.242 ns/day, 10.703 hours/ns, 259.544 timesteps/s, 531.546 katom-step/s
100.0% CPU use with 1 MPI tasks x 1 OpenMP threads

MPI task timing breakdown:
Section |  min time  |  avg time  |  max time  |%varavg| %total
---------------------------------------------------------------
Pair    | 19.904     | 19.904     | 19.904     |   0.0 | 25.83
Neigh   | 0          | 0          | 0          |   0.0 |  0.00
Comm    | 0.68828    | 0.68828    | 0.68828    |   0.0 |  0.89
Output  | 0.11674    | 0.11674    | 0.11674    |   0.0 |  0.15
Modify  | 56.261     | 56.261     | 56.261     |   0.0 | 73.01
Other   |            | 0.08878    |            |       |  0.12

Nlocal:           2048 ave        2048 max        2048 min
Histogram: 1 0 0 0 0 0 0 0 0 0
Nghost:           1732 ave        1732 max        1732 min
Histogram: 1 0 0 0 0 0 0 0 0 0
Neighs:              0 ave           0 max           0 min
Histogram: 1 0 0 0 0 0 0 0 0 0
FullNghs:        24576 ave       24576 max       24576 min
Histogram: 1 0 0 0 0 0 0 0 0 0

Total # of neighbors = 24576
Ave neighs/atom = 12
Neighbor list builds = 0
Dangerous builds = 0

print           "DYNAMICS_T${runtemp}_DONE"
DYNAMICS_T50_DONE
Total wall time: 0:01:17
