LAMMPS (10 Dec 2025 - Development - patch_10Dec2025-120-ga51f9ba0e7)
OMP_NUM_THREADS environment is not set. Defaulting to 1 thread.
  using 1 OpenMP thread(s) per MPI task
# Finite-T Langevin spin-dynamics stage for the Pd/Fe/Ir(111) effective model (see
# in.pdfeir_effective.lammps for the Hamiltonian, parameters, and their provenance).
# Run via run_scan.sh, one temperature per invocation: -var runtemp <K> -var runseed <int>
#
# Segfault root cause and fix (found by bisection, 2026-08-16):
#   `fix nve/spin` + a dynamics `run` was segfaulting on the real system on every LAMMPS
#   build tried, including a from-source rebuild with the SPIN package freshly enabled
#   (10 Dec 2025 dev snapshot). Bisected on a minimal reproducer down to: LAMMPS's
#   `pair_style hybrid/overlay` segfaults during force computation whenever it wraps
#   EXACTLY TWO SPIN-package pair substyles (confirmed for spin/exchange+spin/dmi and,
#   independently, spin/exchange+spin/magelec) -- reproduces regardless of langevin/spin,
#   fix declaration order, lattice geometry/boundary, or DMI direction, and is NOT specific
#   to this system: examples/SPIN/bfo (which combines exchange+magelec+dmi, THREE
#   substyles) ships with LAMMPS and runs fine on the exact same build. Adding a third,
#   physically-inert (zero-strength) spin/magelec substyle to pad hybrid/overlay to three
#   substyles avoids the crash entirely -- verified against this real system (600-atom
#   scaled check, 500-step Langevin run, smooth non-NaN energy relaxation) before adopting
#   it here. This is a LAMMPS bug (not a modeling error); the padding is a workaround,
#   not a physics change (magelec coefficient is exactly 0).

units           metal
atom_style      spin
dimension       3
boundary        p p f
atom_modify     map array

read_restart    restart.pdfeir_T0.equil
Reading restart file ...
  restart file = 10 Dec 2025, LAMMPS = 10 Dec 2025
  restoring atom style spin from restart
  orthogonal box = (0 0 -1.3575) to (407.25 235.1259 1.3575)
  1 by 1 by 1 MPI processor grid
  restoring pair style hybrid/overlay from restart
  15000 atoms
  read_restart CPU = 0.003 seconds

variable        rnn equal 2.715
variable        j_eff_eV equal 0.00368
variable        exch_a equal v_j_eff_eV*2.718281828/4.0
variable        rc_exch equal 1.2*${rnn}
variable        rc_exch equal 1.2*2.715
variable        d_eV equal 0.00139
variable        rc_dmi equal 1.2*${rnn}
variable        rc_dmi equal 1.2*2.715
variable        k_eV equal -0.0007

# --- workaround: pad hybrid/overlay to 3 spin substyles, see note above ---
pair_style      hybrid/overlay spin/exchange ${rc_exch} spin/dmi ${rc_dmi} spin/magelec ${rc_exch}
pair_style      hybrid/overlay spin/exchange 3.258 spin/dmi ${rc_dmi} spin/magelec ${rc_exch}
pair_style      hybrid/overlay spin/exchange 3.258 spin/dmi 3.258 spin/magelec ${rc_exch}
pair_style      hybrid/overlay spin/exchange 3.258 spin/dmi 3.258 spin/magelec 3.258
pair_coeff      * * spin/exchange exchange ${rc_exch} ${exch_a} 0.0 ${rnn} offset yes
pair_coeff      * * spin/exchange exchange 3.258 ${exch_a} 0.0 ${rnn} offset yes
pair_coeff      * * spin/exchange exchange 3.258 0.00250081928176 0.0 ${rnn} offset yes
pair_coeff      * * spin/exchange exchange 3.258 0.00250081928176 0.0 2.715 offset yes
pair_coeff      * * spin/dmi dmi ${rc_dmi} ${d_eV} 0.0 0.0 1.0
pair_coeff      * * spin/dmi dmi 3.258 ${d_eV} 0.0 0.0 1.0
pair_coeff      * * spin/dmi dmi 3.258 0.00139 0.0 0.0 1.0
pair_coeff      * * spin/magelec magelec ${rc_exch} 0.0 1.0 1.0 1.0   # zero strength: workaround only
pair_coeff      * * spin/magelec magelec 3.258 0.0 1.0 1.0 1.0   

neighbor        0.3 bin
neigh_modify    every 10 check yes delay 20

fix             1 all precession/spin zeeman 0.0 0.0 0.0 1.0 anisotropy ${k_eV} 0.0 0.0 1.0
fix             1 all precession/spin zeeman 0.0 0.0 0.0 1.0 anisotropy -0.0007 0.0 0.0 1.0
fix_modify      1 energy yes
fix             2 all langevin/spin ${runtemp} 0.05 ${runseed}
fix             2 all langevin/spin 190 0.05 ${runseed}
fix             2 all langevin/spin 190 0.05 21
fix             3 all nve/spin lattice frozen

timestep        0.0001

compute         out_mag all spin
compute         outsp all property/atom spx spy spz sp
thermo_style    custom step time temp pe etotal c_out_mag[4] c_out_mag[5]
thermo          200

dump            1 all custom 500 dump_pdfeir_T${runtemp}_s${runseed}.lammpstrj type x y z c_outsp[1] c_outsp[2] c_outsp[3]
dump            1 all custom 500 dump_pdfeir_T190_s${runseed}.lammpstrj type x y z c_outsp[1] c_outsp[2] c_outsp[3]
dump            1 all custom 500 dump_pdfeir_T190_s21.lammpstrj type x y z c_outsp[1] c_outsp[2] c_outsp[3]

# Equilibrate then production sample. 20k steps @ dt=0.0001 ps = 2 ps -- short first pass;
# extend once the T_c ~214K checkpoint from the paper needs finer sampling.
run             20000

CITE-CITE-CITE-CITE-CITE-CITE-CITE-CITE-CITE-CITE-CITE-CITE-CITE

Your simulation uses code contributions which should be cited:

- fix nve/spin command: https://doi.org/10.1016/j.jcp.2018.06.042

@article{tranchida2018massively,
title={Massively Parallel Symplectic Algorithm for Coupled Magnetic Spin    Dynamics and Molecular Dynamics},
author={Tranchida, J and Plimpton, S J and Thibaudeau, P and Thompson, A P},
journal={Journal of Computational Physics},
volume={372},
pages={406--425},
year={2018},
publisher={Elsevier}
doi={10.1016/j.jcp.2018.06.042}
}

CITE-CITE-CITE-CITE-CITE-CITE-CITE-CITE-CITE-CITE-CITE-CITE-CITE

Generated 0 of 0 mixed pair_coeff terms from geometric mixing rule
Neighbor list info ...
  update: every = 10 steps, delay = 20 steps, check = yes
  max neighbors/atom: 2000, page size: 100000
  master list distance cutoff = 3.558
  ghost atom cutoff = 3.558
  binsize = 1.779, bins = 229 133 2
  3 neighbor lists, perpetual/occasional/extra = 3 0 0
  (1) pair spin/exchange, perpetual
      attributes: full, newton on
      pair build: full/bin/atomonly
      stencil: full/bin/3d
      bin: standard
  (2) pair spin/dmi, perpetual, copy from (1)
      attributes: full, newton on
      pair build: copy
      stencil: none
      bin: none
  (3) pair spin/magelec, perpetual, copy from (1)
      attributes: full, newton on
      pair build: copy
      stencil: none
      bin: none
WARNING: Dump 1 includes no atom IDs and is not sorted by ID. This may complicate post-processing tasks or visualization (src/dump.cpp:220)
Per MPI rank memory allocation (min/avg/max) = 6.591 | 6.591 | 6.591 Mbytes
   Step          Time           Temp          PotEng         TotEng      c_out_mag[4]   c_out_mag[5] 
      2522   0.2522         0             -1.0275171     -1.0275171      0.030922721   -1.0275171    
      2600   0.26           0              5.3971263      5.3971263      0.030346794    5.3971263    
      2800   0.28           0              20.069206      20.069206      0.031295809    20.069206    
      3000   0.3            0              32.815738      32.815738      0.031256574    32.815738    
      3200   0.32           0              43.381041      43.381041      0.029466951    43.381041    
      3400   0.34           0              52.450564      52.450564      0.030291804    52.450564    
      3600   0.36           0              60.509838      60.509838      0.030124656    60.509838    
      3800   0.38           0              67.690745      67.690745      0.025958827    67.690745    
      4000   0.4            0              74.635222      74.635222      0.024671168    74.635222    
      4200   0.42           0              80.887845      80.887845      0.025353708    80.887845    
      4400   0.44           0              86.255696      86.255696      0.022610094    86.255696    
      4600   0.46           0              90.911305      90.911305      0.020905906    90.911305    
      4800   0.48           0              95.5877        95.5877        0.021248553    95.5877      
      5000   0.5            0              99.612271      99.612271      0.01769966     99.612271    
      5200   0.52           0              103.28925      103.28925      0.016891227    103.28925    
      5400   0.54           0              106.19025      106.19025      0.016462823    106.19025    
      5600   0.56           0              109.60218      109.60218      0.015471726    109.60218    
      5800   0.58           0              111.93777      111.93777      0.017527548    111.93777    
      6000   0.6            0              114.60665      114.60665      0.016955123    114.60665    
      6200   0.62           0              117.38767      117.38767      0.014272292    117.38767    
      6400   0.64           0              119.84257      119.84257      0.013442427    119.84257    
      6600   0.66           0              122.2349       122.2349       0.012630056    122.2349     
      6800   0.68           0              124.41224      124.41224      0.012951221    124.41224    
      7000   0.7            0              126.0388       126.0388       0.012032288    126.0388     
      7200   0.72           0              128.21037      128.21037      0.012781758    128.21037    
      7400   0.74           0              129.6359       129.6359       0.012817145    129.6359     
      7600   0.76           0              131.04767      131.04767      0.013181819    131.04767    
      7800   0.78           0              132.26474      132.26474      0.012986889    132.26474    
      8000   0.8            0              133.81333      133.81333      0.011050287    133.81333    
      8200   0.82           0              134.61703      134.61703      0.0083485495   134.61703    
      8400   0.84           0              135.48254      135.48254      0.0099983442   135.48254    
      8600   0.86           0              136.89717      136.89717      0.0092920157   136.89717    
      8800   0.88           0              137.75972      137.75972      0.012551519    137.75972    
      9000   0.9            0              138.59184      138.59184      0.013417166    138.59184    
      9200   0.92           0              139.44657      139.44657      0.015103733    139.44657    
      9400   0.94           0              140.09562      140.09562      0.01619085     140.09562    
      9600   0.96           0              140.83151      140.83151      0.014975728    140.83151    
      9800   0.98           0              141.8161       141.8161       0.012842402    141.8161     
     10000   1              0              142.60389      142.60389      0.013621187    142.60389    
     10200   1.02           0              142.98416      142.98416      0.013894236    142.98416    
     10400   1.04           0              143.79172      143.79172      0.013571312    143.79172    
     10600   1.06           0              144.52893      144.52893      0.013940255    144.52893    
     10800   1.08           0              144.99921      144.99921      0.014725851    144.99921    
     11000   1.1            0              145.96106      145.96106      0.013207263    145.96106    
     11200   1.12           0              146.32791      146.32791      0.014502444    146.32791    
     11400   1.14           0              146.88367      146.88367      0.012047469    146.88367    
     11600   1.16           0              147.18763      147.18763      0.010456334    147.18763    
     11800   1.18           0              147.72634      147.72634      0.0086756285   147.72634    
     12000   1.2            0              148.18592      148.18592      0.0099233494   148.18592    
     12200   1.22           0              148.10242      148.10242      0.0067809587   148.10242    
     12400   1.24           0              148.26906      148.26906      0.006161275    148.26906    
     12600   1.26           0              148.35761      148.35761      0.00627793     148.35761    
     12800   1.28           0              148.63929      148.63929      0.0039344869   148.63929    
     13000   1.3            0              149.03169      149.03169      0.0045276657   149.03169    
     13200   1.32           0              149.67606      149.67606      0.0054917001   149.67606    
     13400   1.34           0              149.72919      149.72919      0.005936863    149.72919    
     13600   1.36           0              149.78469      149.78469      0.009321033    149.78469    
     13800   1.38           0              149.96302      149.96302      0.0088344296   149.96302    
     14000   1.4            0              150.24203      150.24203      0.0070413348   150.24203    
     14200   1.42           0              150.28111      150.28111      0.005619744    150.28111    
     14400   1.44           0              150.78257      150.78257      0.0078763572   150.78257    
     14600   1.46           0              151.16834      151.16834      0.0075218959   151.16834    
     14800   1.48           0              151.49772      151.49772      0.0081096505   151.49772    
     15000   1.5            0              151.9149       151.9149       0.0088272185   151.9149     
     15200   1.52           0              152.03945      152.03945      0.008339463    152.03945    
     15400   1.54           0              152.52344      152.52344      0.0084098129   152.52344    
     15600   1.56           0              152.61967      152.61967      0.0061159852   152.61967    
     15800   1.58           0              152.78939      152.78939      0.005734354    152.78939    
     16000   1.6            0              152.73114      152.73114      0.0041779226   152.73114    
     16200   1.62           0              152.99645      152.99645      0.008558371    152.99645    
     16400   1.64           0              153.18283      153.18283      0.0091167677   153.18283    
     16600   1.66           0              152.80667      152.80667      0.0086247646   152.80667    
     16800   1.68           0              152.83949      152.83949      0.0085399574   152.83949    
     17000   1.7            0              152.19644      152.19644      0.0087285414   152.19644    
     17200   1.72           0              151.86536      151.86536      0.0080514197   151.86536    
     17400   1.74           0              151.80157      151.80157      0.0080683326   151.80157    
     17600   1.76           0              151.6833       151.6833       0.0074876843   151.6833     
     17800   1.78           0              152.14827      152.14827      0.0083056654   152.14827    
     18000   1.8            0              152.04151      152.04151      0.009767438    152.04151    
     18200   1.82           0              152.59822      152.59822      0.009327136    152.59822    
     18400   1.84           0              152.71808      152.71808      0.010444412    152.71808    
     18600   1.86           0              152.49929      152.49929      0.010485539    152.49929    
     18800   1.88           0              152.33662      152.33662      0.0079838995   152.33662    
     19000   1.9            0              152.43561      152.43561      0.0087492588   152.43561    
     19200   1.92           0              152.69842      152.69842      0.0084419155   152.69842    
     19400   1.94           0              152.83389      152.83389      0.0061715864   152.83389    
     19600   1.96           0              152.60252      152.60252      0.0069296882   152.60252    
     19800   1.98           0              152.69947      152.69947      0.0059817969   152.69947    
     20000   2              0              152.65482      152.65482      0.0071521546   152.65482    
     20200   2.02           0              152.23432      152.23432      0.0075979933   152.23432    
     20400   2.04           0              152.2981       152.2981       0.0053807377   152.2981     
     20600   2.06           0              152.38104      152.38104      0.0084122525   152.38104    
     20800   2.08           0              152.47697      152.47697      0.0092458027   152.47697    
     21000   2.1            0              152.53606      152.53606      0.0096273668   152.53606    
     21200   2.12           0              152.64997      152.64997      0.010282881    152.64997    
     21400   2.14           0              152.82032      152.82032      0.01182093     152.82032    
     21600   2.16           0              152.40622      152.40622      0.012093931    152.40622    
     21800   2.18           0              152.62977      152.62977      0.012342811    152.62977    
     22000   2.2            0              152.84177      152.84177      0.013391045    152.84177    
     22200   2.22           0              152.90972      152.90972      0.012743347    152.90972    
     22400   2.24           0              152.81982      152.81982      0.011359848    152.81982    
     22522   2.2522         0              152.73701      152.73701      0.012800927    152.73701    
Loop time of 541.91 on 1 procs for 20000 steps with 15000 atoms

Performance: 0.319 ns/day, 75.265 hours/ns, 36.907 timesteps/s, 553.598 katom-step/s
99.9% CPU use with 1 MPI tasks x 1 OpenMP threads

MPI task timing breakdown:
Section |  min time  |  avg time  |  max time  |%varavg| %total
---------------------------------------------------------------
Pair    | 138.79     | 138.79     | 138.79     |   0.0 | 25.61
Neigh   | 0          | 0          | 0          |   0.0 |  0.00
Comm    | 1.4598     | 1.4598     | 1.4598     |   0.0 |  0.27
Output  | 0.91168    | 0.91168    | 0.91168    |   0.0 |  0.17
Modify  | 396.71     | 396.71     | 396.71     |   0.0 | 73.21
Other   |            | 4.045      |            |       |  0.75

Nlocal:          15000 ave       15000 max       15000 min
Histogram: 1 0 0 0 0 0 0 0 0 0
Nghost:            707 ave         707 max         707 min
Histogram: 1 0 0 0 0 0 0 0 0 0
Neighs:              0 ave           0 max           0 min
Histogram: 1 0 0 0 0 0 0 0 0 0
FullNghs:        90000 ave       90000 max       90000 min
Histogram: 1 0 0 0 0 0 0 0 0 0

Total # of neighbors = 90000
Ave neighs/atom = 6
Neighbor list builds = 0
Dangerous builds = 0

print           "DYNAMICS_T${runtemp}_DONE"
DYNAMICS_T190_DONE
Total wall time: 0:09:01
