LAMMPS (10 Dec 2025 - Development - patch_10Dec2025-120-ga51f9ba0e7)
OMP_NUM_THREADS environment is not set. Defaulting to 1 thread.
  using 1 OpenMP thread(s) per MPI task
Reading restart file ...
  restart file = 10 Dec 2025, LAMMPS = 10 Dec 2025
  restoring atom style spin from restart
  triclinic box = (0 0 0) to (86.604109 72.44143 33.758371) with tilt (47.827887 47.809739 49.151162)
WARNING: Triclinic box skew is large. LAMMPS will run inefficiently. (src/domain.cpp:221)
  1 by 1 by 1 MPI processor grid
  restoring pair style hybrid/overlay from restart
  2048 atoms
  read_restart CPU = 0.001 seconds

CITE-CITE-CITE-CITE-CITE-CITE-CITE-CITE-CITE-CITE-CITE-CITE-CITE

Your simulation uses code contributions which should be cited:
- fix nve/spin command: https://doi.org/10.1016/j.jcp.2018.06.042
The log file lists these citations in BibTeX format.

CITE-CITE-CITE-CITE-CITE-CITE-CITE-CITE-CITE-CITE-CITE-CITE-CITE

Generated 0 of 0 mixed pair_coeff terms from geometric mixing rule
Neighbor list info ...
  update: every = 10 steps, delay = 20 steps, check = yes
  max neighbors/atom: 2000, page size: 100000
  master list distance cutoff = 5.55
  ghost atom cutoff = 5.55
  binsize = 2.775, bins = 66 44 13
  3 neighbor lists, perpetual/occasional/extra = 3 0 0
  (1) pair spin/exchange, perpetual
      attributes: full, newton on
      pair build: full/bin/atomonly
      stencil: full/bin/3d
      bin: standard
  (2) pair spin/dmi, perpetual, copy from (1)
      attributes: full, newton on
      pair build: copy
      stencil: none
      bin: none
  (3) pair spin/magelec, perpetual, copy from (1)
      attributes: full, newton on
      pair build: copy
      stencil: none
      bin: none
WARNING: Dump 1 includes no atom IDs and is not sorted by ID. This may complicate post-processing tasks or visualization (src/dump.cpp:220)
Setting up Verlet run ...
  Unit style    : metal
  Current step  : 396
  Time step     : 0.0001
Per MPI rank memory allocation (min/avg/max) = 5.919 | 5.919 | 5.919 Mbytes
   Step          Time           Temp          PotEng         TotEng      c_out_mag[4]   c_out_mag[5] 
       396   0.0396         0              0.16923922     0.16923922     0.071743915    0.16923922   
       400   0.04           0              0.48399577     0.48399577     0.071697769    0.48399577   
       600   0.06           0              12.942401      12.942401      0.069201418    12.942401    
       800   0.08           0              22.503133      22.503133      0.061830622    22.503133    
      1000   0.1            0              28.772706      28.772706      0.069052439    28.772706    
      1200   0.12           0              33.304623      33.304623      0.063677326    33.304623    
      1400   0.14           0              37.12131       37.12131       0.059147778    37.12131     
      1600   0.16           0              40.016584      40.016584      0.059640714    40.016584    
      1800   0.18           0              43.403303      43.403303      0.061190596    43.403303    
      2000   0.2            0              45.096606      45.096606      0.056808943    45.096606    
      2200   0.22           0              47.084361      47.084361      0.051277528    47.084361    
      2400   0.24           0              48.980728      48.980728      0.048492432    48.980728    
      2600   0.26           0              50.728403      50.728403      0.044310001    50.728403    
      2800   0.28           0              51.642686      51.642686      0.033919356    51.642686    
      3000   0.3            0              53.816123      53.816123      0.030078971    53.816123    
      3200   0.32           0              55.202616      55.202616      0.029053355    55.202616    
      3400   0.34           0              54.936472      54.936472      0.031909348    54.936472    
      3600   0.36           0              55.564333      55.564333      0.030239261    55.564333    
      3800   0.38           0              55.756109      55.756109      0.033920957    55.756109    
      4000   0.4            0              56.733591      56.733591      0.037915998    56.733591    
      4200   0.42           0              57.223124      57.223124      0.031082243    57.223124    
      4400   0.44           0              57.76401       57.76401       0.025888875    57.76401     
      4600   0.46           0              58.381292      58.381292      0.02698658     58.381292    
      4800   0.48           0              59.211347      59.211347      0.020255006    59.211347    
      5000   0.5            0              59.491662      59.491662      0.023606492    59.491662    
      5200   0.52           0              59.605661      59.605661      0.01374554     59.605661    
      5400   0.54           0              59.965591      59.965591      0.0051062291   59.965591    
      5600   0.56           0              60.381805      60.381805      0.007256628    60.381805    
      5800   0.58           0              61.039824      61.039824      0.008807125    61.039824    
      6000   0.6            0              60.461998      60.461998      0.0090888117   60.461998    
      6200   0.62           0              60.147986      60.147986      0.0093569326   60.147986    
      6400   0.64           0              60.432197      60.432197      0.0096682926   60.432197    
      6600   0.66           0              60.974098      60.974098      0.017174062    60.974098    
      6800   0.68           0              60.786278      60.786278      0.012191287    60.786278    
      7000   0.7            0              60.727048      60.727048      0.0109487      60.727048    
      7200   0.72           0              60.993338      60.993338      0.0057175946   60.993338    
      7400   0.74           0              61.787183      61.787183      0.011130041    61.787183    
      7600   0.76           0              61.763176      61.763176      0.0086827067   61.763176    
      7800   0.78           0              61.347775      61.347775      0.010819761    61.347775    
      8000   0.8            0              61.579097      61.579097      0.012600149    61.579097    
      8200   0.82           0              61.786231      61.786231      0.015170747    61.786231    
      8400   0.84           0              62.090579      62.090579      0.015095586    62.090579    
      8600   0.86           0              62.486879      62.486879      0.016973161    62.486879    
      8800   0.88           0              62.372564      62.372564      0.017627922    62.372564    
      9000   0.9            0              62.405974      62.405974      0.02112468     62.405974    
      9200   0.92           0              62.47356       62.47356       0.020202308    62.47356     
      9400   0.94           0              62.118         62.118         0.024718659    62.118       
      9600   0.96           0              63.42236       63.42236       0.025834467    63.42236     
      9800   0.98           0              63.027029      63.027029      0.02787049     63.027029    
     10000   1              0              62.910243      62.910243      0.030042259    62.910243    
     10200   1.02           0              63.034555      63.034555      0.025208797    63.034555    
     10400   1.04           0              62.943359      62.943359      0.022179444    62.943359    
     10600   1.06           0              63.232687      63.232687      0.017028868    63.232687    
     10800   1.08           0              63.121622      63.121622      0.015353085    63.121622    
     11000   1.1            0              63.061286      63.061286      0.0075338929   63.061286    
     11200   1.12           0              63.064747      63.064747      0.016019728    63.064747    
     11400   1.14           0              62.644249      62.644249      0.025477716    62.644249    
     11600   1.16           0              62.139809      62.139809      0.02080312     62.139809    
     11800   1.18           0              62.290198      62.290198      0.021143049    62.290198    
     12000   1.2            0              62.662948      62.662948      0.014250113    62.662948    
     12200   1.22           0              62.464672      62.464672      0.013157019    62.464672    
     12400   1.24           0              62.328187      62.328187      0.0094436074   62.328187    
     12600   1.26           0              62.32677       62.32677       0.0082913914   62.32677     
     12800   1.28           0              62.513226      62.513226      0.011177849    62.513226    
     13000   1.3            0              63.465016      63.465016      0.009124927    63.465016    
     13200   1.32           0              64.008221      64.008221      0.0054616118   64.008221    
     13400   1.34           0              63.085919      63.085919      0.0051182966   63.085919    
     13600   1.36           0              62.834888      62.834888      0.0087406134   62.834888    
     13800   1.38           0              63.409678      63.409678      0.013076824    63.409678    
     14000   1.4            0              63.416981      63.416981      0.017111808    63.416981    
     14200   1.42           0              63.18223       63.18223       0.017741545    63.18223     
     14400   1.44           0              62.958895      62.958895      0.021065327    62.958895    
     14600   1.46           0              63.261237      63.261237      0.023840183    63.261237    
     14800   1.48           0              64.024749      64.024749      0.018961003    64.024749    
     15000   1.5            0              64.031468      64.031468      0.0057289644   64.031468    
     15200   1.52           0              64.30944       64.30944       0.012396576    64.30944     
     15400   1.54           0              63.793457      63.793457      0.01095297     63.793457    
     15600   1.56           0              63.997722      63.997722      0.0070960092   63.997722    
     15800   1.58           0              64.036596      64.036596      0.0039336992   64.036596    
     16000   1.6            0              63.859172      63.859172      0.0050586544   63.859172    
     16200   1.62           0              63.595487      63.595487      0.01394402     63.595487    
     16400   1.64           0              63.026336      63.026336      0.026642619    63.026336    
     16600   1.66           0              62.603574      62.603574      0.0266302      62.603574    
     16800   1.68           0              62.334841      62.334841      0.025126876    62.334841    
     17000   1.7            0              62.505563      62.505563      0.017719965    62.505563    
     17200   1.72           0              62.129782      62.129782      0.022849056    62.129782    
     17400   1.74           0              61.95          61.95          0.026880683    61.95        
     17600   1.76           0              62.268547      62.268547      0.018023964    62.268547    
     17800   1.78           0              61.752197      61.752197      0.0062536497   61.752197    
     18000   1.8            0              61.636147      61.636147      0.018735705    61.636147    
     18200   1.82           0              62.389427      62.389427      0.015463143    62.389427    
     18400   1.84           0              62.235196      62.235196      0.016697619    62.235196    
     18600   1.86           0              62.148197      62.148197      0.013694134    62.148197    
     18800   1.88           0              62.571246      62.571246      0.014704929    62.571246    
     19000   1.9            0              63.136737      63.136737      0.012148173    63.136737    
     19200   1.92           0              63.531678      63.531678      0.016687693    63.531678    
     19400   1.94           0              63.322161      63.322161      0.017745179    63.322161    
     19600   1.96           0              63.078113      63.078113      0.023637096    63.078113    
     19800   1.98           0              63.196865      63.196865      0.024933335    63.196865    
     20000   2              0              63.318324      63.318324      0.02057474     63.318324    
     20200   2.02           0              63.722979      63.722979      0.025307087    63.722979    
     20396   2.0396         0              64.27487       64.27487       0.033449128    64.27487     
Loop time of 78.905 on 1 procs for 20000 steps with 2048 atoms

Performance: 2.190 ns/day, 10.959 hours/ns, 253.469 timesteps/s, 519.105 katom-step/s
100.0% CPU use with 1 MPI tasks x 1 OpenMP threads

MPI task timing breakdown:
Section |  min time  |  avg time  |  max time  |%varavg| %total
---------------------------------------------------------------
Pair    | 20.419     | 20.419     | 20.419     |   0.0 | 25.88
Neigh   | 0          | 0          | 0          |   0.0 |  0.00
Comm    | 0.69259    | 0.69259    | 0.69259    |   0.0 |  0.88
Output  | 0.11778    | 0.11778    | 0.11778    |   0.0 |  0.15
Modify  | 57.587     | 57.587     | 57.587     |   0.0 | 72.98
Other   |            | 0.08876    |            |       |  0.11

Nlocal:           2048 ave        2048 max        2048 min
Histogram: 1 0 0 0 0 0 0 0 0 0
Nghost:           1732 ave        1732 max        1732 min
Histogram: 1 0 0 0 0 0 0 0 0 0
Neighs:              0 ave           0 max           0 min
Histogram: 1 0 0 0 0 0 0 0 0 0
FullNghs:        24576 ave       24576 max       24576 min
Histogram: 1 0 0 0 0 0 0 0 0 0

Total # of neighbors = 24576
Ave neighs/atom = 12
Neighbor list builds = 0
Dangerous builds = 0
DYNAMICS_T400_DONE
Total wall time: 0:01:18
