LAMMPS (10 Dec 2025 - Development - patch_10Dec2025-120-ga51f9ba0e7)
OMP_NUM_THREADS environment is not set. Defaulting to 1 thread.
  using 1 OpenMP thread(s) per MPI task
Reading restart file ...
  restart file = 10 Dec 2025, LAMMPS = 10 Dec 2025
  restoring atom style spin from restart
  orthogonal box = (0 0 -1.3575) to (407.25 235.1259 1.3575)
  1 by 1 by 1 MPI processor grid
  restoring pair style hybrid/overlay from restart
  15000 atoms
  read_restart CPU = 0.003 seconds

CITE-CITE-CITE-CITE-CITE-CITE-CITE-CITE-CITE-CITE-CITE-CITE-CITE

Your simulation uses code contributions which should be cited:
- fix nve/spin command: https://doi.org/10.1016/j.jcp.2018.06.042
The log file lists these citations in BibTeX format.

CITE-CITE-CITE-CITE-CITE-CITE-CITE-CITE-CITE-CITE-CITE-CITE-CITE

Generated 0 of 0 mixed pair_coeff terms from geometric mixing rule
Neighbor list info ...
  update: every = 10 steps, delay = 20 steps, check = yes
  max neighbors/atom: 2000, page size: 100000
  master list distance cutoff = 3.558
  ghost atom cutoff = 3.558
  binsize = 1.779, bins = 229 133 2
  3 neighbor lists, perpetual/occasional/extra = 3 0 0
  (1) pair spin/exchange, perpetual
      attributes: full, newton on
      pair build: full/bin/atomonly
      stencil: full/bin/3d
      bin: standard
  (2) pair spin/dmi, perpetual, copy from (1)
      attributes: full, newton on
      pair build: copy
      stencil: none
      bin: none
  (3) pair spin/magelec, perpetual, copy from (1)
      attributes: full, newton on
      pair build: copy
      stencil: none
      bin: none
WARNING: Dump 1 includes no atom IDs and is not sorted by ID. This may complicate post-processing tasks or visualization (src/dump.cpp:220)
Setting up Verlet run ...
  Unit style    : metal
  Current step  : 2522
  Time step     : 0.0001
Per MPI rank memory allocation (min/avg/max) = 6.591 | 6.591 | 6.591 Mbytes
   Step          Time           Temp          PotEng         TotEng      c_out_mag[4]   c_out_mag[5] 
      2522   0.2522         0             -1.0275171     -1.0275171      0.030922721   -1.0275171    
      2600   0.26           0              5.4983794      5.4983794      0.031201283    5.4983794    
      2800   0.28           0              20.29863       20.29863       0.027655569    20.29863     
      3000   0.3            0              32.968114      32.968114      0.025302977    32.968114    
      3200   0.32           0              44.064479      44.064479      0.022958572    44.064479    
      3400   0.34           0              53.582484      53.582484      0.021636505    53.582484    
      3600   0.36           0              62.374722      62.374722      0.020907396    62.374722    
      3800   0.38           0              69.462743      69.462743      0.020278394    69.462743    
      4000   0.4            0              76.449507      76.449507      0.020958063    76.449507    
      4200   0.42           0              82.692471      82.692471      0.02119872     82.692471    
      4400   0.44           0              88.332593      88.332593      0.022875244    88.332593    
      4600   0.46           0              93.277657      93.277657      0.02500853     93.277657    
      4800   0.48           0              97.746664      97.746664      0.021778259    97.746664    
      5000   0.5            0              102.43053      102.43053      0.017620926    102.43053    
      5200   0.52           0              105.9152       105.9152       0.017819266    105.9152     
      5400   0.54           0              109.13157      109.13157      0.016096108    109.13157    
      5600   0.56           0              112.26162      112.26162      0.013816714    112.26162    
      5800   0.58           0              115.10243      115.10243      0.013023988    115.10243    
      6000   0.6            0              117.84847      117.84847      0.011776671    117.84847    
      6200   0.62           0              120.42674      120.42674      0.010177498    120.42674    
      6400   0.64           0              123.04039      123.04039      0.0073261456   123.04039    
      6600   0.66           0              125.37264      125.37264      0.0066755968   125.37264    
      6800   0.68           0              127.59446      127.59446      0.0062968637   127.59446    
      7000   0.7            0              129.05655      129.05655      0.0082597663   129.05655    
      7200   0.72           0              130.85219      130.85219      0.0078321948   130.85219    
      7400   0.74           0              132.7963       132.7963       0.0076783102   132.7963     
      7600   0.76           0              133.95881      133.95881      0.0060052454   133.95881    
      7800   0.78           0              135.49505      135.49505      0.0063136539   135.49505    
      8000   0.8            0              136.55276      136.55276      0.0087849439   136.55276    
      8200   0.82           0              137.32241      137.32241      0.010223542    137.32241    
      8400   0.84           0              138.52122      138.52122      0.011563071    138.52122    
      8600   0.86           0              139.46903      139.46903      0.01085818     139.46903    
      8800   0.88           0              140.1336       140.1336       0.008694088    140.1336     
      9000   0.9            0              141.03763      141.03763      0.0072635959   141.03763    
      9200   0.92           0              141.88014      141.88014      0.0070581313   141.88014    
      9400   0.94           0              142.15897      142.15897      0.0066189308   142.15897    
      9600   0.96           0              142.45644      142.45644      0.004138964    142.45644    
      9800   0.98           0              143.37984      143.37984      0.0029672763   143.37984    
     10000   1              0              144.03219      144.03219      0.004290168    144.03219    
     10200   1.02           0              144.91019      144.91019      0.0060604118   144.91019    
     10400   1.04           0              145.65656      145.65656      0.0050254536   145.65656    
     10600   1.06           0              146.07777      146.07777      0.0065251286   146.07777    
     10800   1.08           0              146.30688      146.30688      0.0084469      146.30688    
     11000   1.1            0              146.64323      146.64323      0.0081087684   146.64323    
     11200   1.12           0              147.02932      147.02932      0.010635629    147.02932    
     11400   1.14           0              147.75092      147.75092      0.0118094      147.75092    
     11600   1.16           0              147.84566      147.84566      0.013460809    147.84566    
     11800   1.18           0              148.42033      148.42033      0.012656919    148.42033    
     12000   1.2            0              148.46843      148.46843      0.013486178    148.46843    
     12200   1.22           0              149.0161       149.0161       0.01455202     149.0161     
     12400   1.24           0              149.37496      149.37496      0.012989865    149.37496    
     12600   1.26           0              149.48518      149.48518      0.016328756    149.48518    
     12800   1.28           0              149.83442      149.83442      0.017323108    149.83442    
     13000   1.3            0              150.11641      150.11641      0.018642659    150.11641    
     13200   1.32           0              150.29282      150.29282      0.016966111    150.29282    
     13400   1.34           0              150.01481      150.01481      0.016630452    150.01481    
     13600   1.36           0              150.2637       150.2637       0.015694567    150.2637     
     13800   1.38           0              150.42528      150.42528      0.014627214    150.42528    
     14000   1.4            0              150.34976      150.34976      0.015812652    150.34976    
     14200   1.42           0              150.43536      150.43536      0.015867077    150.43536    
     14400   1.44           0              150.81939      150.81939      0.013388588    150.81939    
     14600   1.46           0              150.6798       150.6798       0.011196056    150.6798     
     14800   1.48           0              151.42148      151.42148      0.012079924    151.42148    
     15000   1.5            0              151.57191      151.57191      0.0098648828   151.57191    
     15200   1.52           0              151.74816      151.74816      0.0088357687   151.74816    
     15400   1.54           0              151.67936      151.67936      0.0082209973   151.67936    
     15600   1.56           0              151.24136      151.24136      0.0071599058   151.24136    
     15800   1.58           0              151.15093      151.15093      0.0071623586   151.15093    
     16000   1.6            0              150.99759      150.99759      0.0070565979   150.99759    
     16200   1.62           0              151.29804      151.29804      0.0082160089   151.29804    
     16400   1.64           0              151.56058      151.56058      0.0066665186   151.56058    
     16600   1.66           0              151.33557      151.33557      0.0066355218   151.33557    
     16800   1.68           0              151.35135      151.35135      0.0057139201   151.35135    
     17000   1.7            0              151.13037      151.13037      0.0054513786   151.13037    
     17200   1.72           0              151.30743      151.30743      0.004842587    151.30743    
     17400   1.74           0              151.36992      151.36992      0.0048300211   151.36992    
     17600   1.76           0              151.55375      151.55375      0.0064868154   151.55375    
     17800   1.78           0              151.78005      151.78005      0.0073253121   151.78005    
     18000   1.8            0              151.59427      151.59427      0.0058247795   151.59427    
     18200   1.82           0              151.66123      151.66123      0.0038327149   151.66123    
     18400   1.84           0              151.71986      151.71986      0.0051370755   151.71986    
     18600   1.86           0              151.72         151.72         0.0046985833   151.72       
     18800   1.88           0              151.6647       151.6647       0.0054477413   151.6647     
     19000   1.9            0              151.78976      151.78976      0.0073462891   151.78976    
     19200   1.92           0              152.05964      152.05964      0.0085771199   152.05964    
     19400   1.94           0              151.88779      151.88779      0.010735968    151.88779    
     19600   1.96           0              152.23616      152.23616      0.0089325174   152.23616    
     19800   1.98           0              152.29087      152.29087      0.0095581907   152.29087    
     20000   2              0              152.21489      152.21489      0.010689552    152.21489    
     20200   2.02           0              152.62143      152.62143      0.012044472    152.62143    
     20400   2.04           0              152.86574      152.86574      0.012388644    152.86574    
     20600   2.06           0              152.94319      152.94319      0.0093878977   152.94319    
     20800   2.08           0              153.23182      153.23182      0.0092076312   153.23182    
     21000   2.1            0              153.29285      153.29285      0.009822046    153.29285    
     21200   2.12           0              153.76432      153.76432      0.010635225    153.76432    
     21400   2.14           0              153.46651      153.46651      0.010112883    153.46651    
     21600   2.16           0              153.42961      153.42961      0.010080334    153.42961    
     21800   2.18           0              153.24657      153.24657      0.007948169    153.24657    
     22000   2.2            0              153.01758      153.01758      0.0080142026   153.01758    
     22200   2.22           0              153.10296      153.10296      0.0085650716   153.10296    
     22400   2.24           0              153.00136      153.00136      0.0064147696   153.00136    
     22522   2.2522         0              153.08936      153.08936      0.0058937412   153.08936    
Loop time of 577.603 on 1 procs for 20000 steps with 15000 atoms

Performance: 0.299 ns/day, 80.223 hours/ns, 34.626 timesteps/s, 519.388 katom-step/s
99.9% CPU use with 1 MPI tasks x 1 OpenMP threads

MPI task timing breakdown:
Section |  min time  |  avg time  |  max time  |%varavg| %total
---------------------------------------------------------------
Pair    | 147.38     | 147.38     | 147.38     |   0.0 | 25.52
Neigh   | 0          | 0          | 0          |   0.0 |  0.00
Comm    | 0.50216    | 0.50216    | 0.50216    |   0.0 |  0.09
Output  | 0.91819    | 0.91819    | 0.91819    |   0.0 |  0.16
Modify  | 427.47     | 427.47     | 427.47     |   0.0 | 74.01
Other   |            | 1.327      |            |       |  0.23

Nlocal:          15000 ave       15000 max       15000 min
Histogram: 1 0 0 0 0 0 0 0 0 0
Nghost:            707 ave         707 max         707 min
Histogram: 1 0 0 0 0 0 0 0 0 0
Neighs:              0 ave           0 max           0 min
Histogram: 1 0 0 0 0 0 0 0 0 0
FullNghs:        90000 ave       90000 max       90000 min
Histogram: 1 0 0 0 0 0 0 0 0 0

Total # of neighbors = 90000
Ave neighs/atom = 6
Neighbor list builds = 0
Dangerous builds = 0
DYNAMICS_T195_DONE
Total wall time: 0:09:37
