LAMMPS (10 Dec 2025 - Development - patch_10Dec2025-120-ga51f9ba0e7)
OMP_NUM_THREADS environment is not set. Defaulting to 1 thread.
  using 1 OpenMP thread(s) per MPI task
Reading restart file ...
  restart file = 10 Dec 2025, LAMMPS = 10 Dec 2025
  restoring atom style spin from restart
  triclinic box = (0 0 0) to (86.604109 72.44143 33.758371) with tilt (47.827887 47.809739 49.151162)
WARNING: Triclinic box skew is large. LAMMPS will run inefficiently. (src/domain.cpp:221)
  1 by 1 by 1 MPI processor grid
  restoring pair style hybrid/overlay from restart
  2048 atoms
  read_restart CPU = 0.001 seconds

CITE-CITE-CITE-CITE-CITE-CITE-CITE-CITE-CITE-CITE-CITE-CITE-CITE

Your simulation uses code contributions which should be cited:
- fix nve/spin command: https://doi.org/10.1016/j.jcp.2018.06.042
The log file lists these citations in BibTeX format.

CITE-CITE-CITE-CITE-CITE-CITE-CITE-CITE-CITE-CITE-CITE-CITE-CITE

Generated 0 of 0 mixed pair_coeff terms from geometric mixing rule
Neighbor list info ...
  update: every = 10 steps, delay = 20 steps, check = yes
  max neighbors/atom: 2000, page size: 100000
  master list distance cutoff = 5.55
  ghost atom cutoff = 5.55
  binsize = 2.775, bins = 66 44 13
  3 neighbor lists, perpetual/occasional/extra = 3 0 0
  (1) pair spin/exchange, perpetual
      attributes: full, newton on
      pair build: full/bin/atomonly
      stencil: full/bin/3d
      bin: standard
  (2) pair spin/dmi, perpetual, copy from (1)
      attributes: full, newton on
      pair build: copy
      stencil: none
      bin: none
  (3) pair spin/magelec, perpetual, copy from (1)
      attributes: full, newton on
      pair build: copy
      stencil: none
      bin: none
WARNING: Dump 1 includes no atom IDs and is not sorted by ID. This may complicate post-processing tasks or visualization (src/dump.cpp:220)
Setting up Verlet run ...
  Unit style    : metal
  Current step  : 396
  Time step     : 0.0001
Per MPI rank memory allocation (min/avg/max) = 5.919 | 5.919 | 5.919 Mbytes
   Step          Time           Temp          PotEng         TotEng      c_out_mag[4]   c_out_mag[5] 
       396   0.0396         0              0.16923922     0.16923922     0.071743915    0.16923922   
       400   0.04           0              0.40541919     0.40541919     0.07172372     0.40541919   
       600   0.06           0              9.9596172      9.9596172      0.070404866    9.9596172    
       800   0.08           0              17.530857      17.530857      0.064578585    17.530857    
      1000   0.1            0              22.630212      22.630212      0.071466916    22.630212    
      1200   0.12           0              26.385976      26.385976      0.067572379    26.385976    
      1400   0.14           0              29.63345       29.63345       0.064502759    29.63345     
      1600   0.16           0              32.108973      32.108973      0.065049651    32.108973    
      1800   0.18           0              34.718459      34.718459      0.066992711    34.718459    
      2000   0.2            0              35.948116      35.948116      0.06776536     35.948116    
      2200   0.22           0              37.798834      37.798834      0.067170385    37.798834    
      2400   0.24           0              38.737697      38.737697      0.062342957    38.737697    
      2600   0.26           0              40.204789      40.204789      0.055163522    40.204789    
      2800   0.28           0              41.7768        41.7768        0.05185449     41.7768      
      3000   0.3            0              43.828682      43.828682      0.050552868    43.828682    
      3200   0.32           0              45.610564      45.610564      0.050273459    45.610564    
      3400   0.34           0              46.010113      46.010113      0.052625198    46.010113    
      3600   0.36           0              46.693529      46.693529      0.04579191     46.693529    
      3800   0.38           0              47.039095      47.039095      0.039116122    47.039095    
      4000   0.4            0              46.778354      46.778354      0.039087814    46.778354    
      4200   0.42           0              47.3491        47.3491        0.041211048    47.3491      
      4400   0.44           0              48.073088      48.073088      0.045608884    48.073088    
      4600   0.46           0              48.381648      48.381648      0.040976496    48.381648    
      4800   0.48           0              49.24864       49.24864       0.043842756    49.24864     
      5000   0.5            0              49.902903      49.902903      0.037056973    49.902903    
      5200   0.52           0              50.443753      50.443753      0.042546563    50.443753    
      5400   0.54           0              51.241322      51.241322      0.040479158    51.241322    
      5600   0.56           0              51.404121      51.404121      0.043452599    51.404121    
      5800   0.58           0              51.240057      51.240057      0.04800118     51.240057    
      6000   0.6            0              51.36609       51.36609       0.049986828    51.36609     
      6200   0.62           0              51.419561      51.419561      0.049433982    51.419561    
      6400   0.64           0              51.312637      51.312637      0.054430408    51.312637    
      6600   0.66           0              51.987685      51.987685      0.046853377    51.987685    
      6800   0.68           0              52.13533       52.13533       0.041775856    52.13533     
      7000   0.7            0              52.690236      52.690236      0.040388749    52.690236    
      7200   0.72           0              53.042913      53.042913      0.045060813    53.042913    
      7400   0.74           0              53.032653      53.032653      0.050640613    53.032653    
      7600   0.76           0              53.534055      53.534055      0.052659575    53.534055    
      7800   0.78           0              53.973476      53.973476      0.06011165     53.973476    
      8000   0.8            0              53.909369      53.909369      0.065568528    53.909369    
      8200   0.82           0              54.149116      54.149116      0.062239421    54.149116    
      8400   0.84           0              54.34698       54.34698       0.070128237    54.34698     
      8600   0.86           0              55.348073      55.348073      0.061350798    55.348073    
      8800   0.88           0              55.322294      55.322294      0.062169065    55.322294    
      9000   0.9            0              54.910915      54.910915      0.054223486    54.910915    
      9200   0.92           0              54.783081      54.783081      0.053967744    54.783081    
      9400   0.94           0              55.156881      55.156881      0.046482564    55.156881    
      9600   0.96           0              55.15166       55.15166       0.046130875    55.15166     
      9800   0.98           0              55.197944      55.197944      0.049075907    55.197944    
     10000   1              0              55.285184      55.285184      0.047524519    55.285184    
     10200   1.02           0              55.042227      55.042227      0.047954997    55.042227    
     10400   1.04           0              55.854597      55.854597      0.051130357    55.854597    
     10600   1.06           0              55.662356      55.662356      0.047121403    55.662356    
     10800   1.08           0              56.548954      56.548954      0.039860959    56.548954    
     11000   1.1            0              56.401787      56.401787      0.036282632    56.401787    
     11200   1.12           0              56.101753      56.101753      0.034302671    56.101753    
     11400   1.14           0              56.499184      56.499184      0.026194699    56.499184    
     11600   1.16           0              57.045401      57.045401      0.027267874    57.045401    
     11800   1.18           0              57.041868      57.041868      0.033215968    57.041868    
     12000   1.2            0              57.106333      57.106333      0.034769693    57.106333    
     12200   1.22           0              57.147118      57.147118      0.032677526    57.147118    
     12400   1.24           0              57.428338      57.428338      0.025660186    57.428338    
     12600   1.26           0              57.403783      57.403783      0.030031076    57.403783    
     12800   1.28           0              57.615275      57.615275      0.033143516    57.615275    
     13000   1.3            0              57.17643       57.17643       0.036316213    57.17643     
     13200   1.32           0              57.705113      57.705113      0.0372091      57.705113    
     13400   1.34           0              57.814201      57.814201      0.037945212    57.814201    
     13600   1.36           0              57.239612      57.239612      0.028718364    57.239612    
     13800   1.38           0              56.935808      56.935808      0.035229002    56.935808    
     14000   1.4            0              57.029439      57.029439      0.034156714    57.029439    
     14200   1.42           0              57.676935      57.676935      0.045184173    57.676935    
     14400   1.44           0              57.534192      57.534192      0.036322729    57.534192    
     14600   1.46           0              57.610107      57.610107      0.030448486    57.610107    
     14800   1.48           0              57.718909      57.718909      0.026643214    57.718909    
     15000   1.5            0              57.886281      57.886281      0.025364689    57.886281    
     15200   1.52           0              57.47938       57.47938       0.025401058    57.47938     
     15400   1.54           0              56.829034      56.829034      0.025126565    56.829034    
     15600   1.56           0              57.139604      57.139604      0.020449753    57.139604    
     15800   1.58           0              57.912931      57.912931      0.0127143      57.912931    
     16000   1.6            0              58.358235      58.358235      0.029363317    58.358235    
     16200   1.62           0              58.408548      58.408548      0.027155023    58.408548    
     16400   1.64           0              58.525845      58.525845      0.018008402    58.525845    
     16600   1.66           0              58.400179      58.400179      0.015183625    58.400179    
     16800   1.68           0              58.079418      58.079418      0.016768752    58.079418    
     17000   1.7            0              58.360995      58.360995      0.018664581    58.360995    
     17200   1.72           0              57.676037      57.676037      0.02339782     57.676037    
     17400   1.74           0              57.780257      57.780257      0.024888611    57.780257    
     17600   1.76           0              57.537866      57.537866      0.030497294    57.537866    
     17800   1.78           0              57.733498      57.733498      0.034512313    57.733498    
     18000   1.8            0              58.544715      58.544715      0.037731089    58.544715    
     18200   1.82           0              58.098081      58.098081      0.043738189    58.098081    
     18400   1.84           0              57.793087      57.793087      0.045039971    57.793087    
     18600   1.86           0              57.929617      57.929617      0.050678629    57.929617    
     18800   1.88           0              57.748987      57.748987      0.051683931    57.748987    
     19000   1.9            0              57.926483      57.926483      0.05245191     57.926483    
     19200   1.92           0              57.136906      57.136906      0.047235478    57.136906    
     19400   1.94           0              57.460084      57.460084      0.043269231    57.460084    
     19600   1.96           0              57.362992      57.362992      0.03802151     57.362992    
     19800   1.98           0              57.518416      57.518416      0.042677839    57.518416    
     20000   2              0              57.553335      57.553335      0.03890497     57.553335    
     20200   2.02           0              56.872018      56.872018      0.035592433    56.872018    
     20396   2.0396         0              56.515562      56.515562      0.040417422    56.515562    
Loop time of 78.853 on 1 procs for 20000 steps with 2048 atoms

Performance: 2.191 ns/day, 10.952 hours/ns, 253.637 timesteps/s, 519.448 katom-step/s
100.0% CPU use with 1 MPI tasks x 1 OpenMP threads

MPI task timing breakdown:
Section |  min time  |  avg time  |  max time  |%varavg| %total
---------------------------------------------------------------
Pair    | 20.718     | 20.718     | 20.718     |   0.0 | 26.27
Neigh   | 0          | 0          | 0          |   0.0 |  0.00
Comm    | 0.69474    | 0.69474    | 0.69474    |   0.0 |  0.88
Output  | 0.11673    | 0.11673    | 0.11673    |   0.0 |  0.15
Modify  | 57.233     | 57.233     | 57.233     |   0.0 | 72.58
Other   |            | 0.09008    |            |       |  0.11

Nlocal:           2048 ave        2048 max        2048 min
Histogram: 1 0 0 0 0 0 0 0 0 0
Nghost:           1732 ave        1732 max        1732 min
Histogram: 1 0 0 0 0 0 0 0 0 0
Neighs:              0 ave           0 max           0 min
Histogram: 1 0 0 0 0 0 0 0 0 0
FullNghs:        24576 ave       24576 max       24576 min
Histogram: 1 0 0 0 0 0 0 0 0 0

Total # of neighbors = 24576
Ave neighs/atom = 12
Neighbor list builds = 0
Dangerous builds = 0
DYNAMICS_T300_DONE
Total wall time: 0:01:18
