LAMMPS (10 Dec 2025 - Development - patch_10Dec2025-120-ga51f9ba0e7)
OMP_NUM_THREADS environment is not set. Defaulting to 1 thread.
  using 1 OpenMP thread(s) per MPI task
Reading restart file ...
  restart file = 10 Dec 2025, LAMMPS = 10 Dec 2025
  restoring atom style spin from restart
  orthogonal box = (0 0 -1.3575) to (407.25 235.1259 1.3575)
  1 by 1 by 1 MPI processor grid
  restoring pair style hybrid/overlay from restart
  15000 atoms
  read_restart CPU = 0.003 seconds

CITE-CITE-CITE-CITE-CITE-CITE-CITE-CITE-CITE-CITE-CITE-CITE-CITE

Your simulation uses code contributions which should be cited:
- fix nve/spin command: https://doi.org/10.1016/j.jcp.2018.06.042
The log file lists these citations in BibTeX format.

CITE-CITE-CITE-CITE-CITE-CITE-CITE-CITE-CITE-CITE-CITE-CITE-CITE

Generated 0 of 0 mixed pair_coeff terms from geometric mixing rule
Neighbor list info ...
  update: every = 10 steps, delay = 20 steps, check = yes
  max neighbors/atom: 2000, page size: 100000
  master list distance cutoff = 3.558
  ghost atom cutoff = 3.558
  binsize = 1.779, bins = 229 133 2
  3 neighbor lists, perpetual/occasional/extra = 3 0 0
  (1) pair spin/exchange, perpetual
      attributes: full, newton on
      pair build: full/bin/atomonly
      stencil: full/bin/3d
      bin: standard
  (2) pair spin/dmi, perpetual, copy from (1)
      attributes: full, newton on
      pair build: copy
      stencil: none
      bin: none
  (3) pair spin/magelec, perpetual, copy from (1)
      attributes: full, newton on
      pair build: copy
      stencil: none
      bin: none
WARNING: Dump 1 includes no atom IDs and is not sorted by ID. This may complicate post-processing tasks or visualization (src/dump.cpp:220)
Setting up Verlet run ...
  Unit style    : metal
  Current step  : 2522
  Time step     : 0.0001
Per MPI rank memory allocation (min/avg/max) = 6.591 | 6.591 | 6.591 Mbytes
   Step          Time           Temp          PotEng         TotEng      c_out_mag[4]   c_out_mag[5] 
      2522   0.2522         0             -1.0275171     -1.0275171      0.030922721   -1.0275171    
      2600   0.26           0              6.12051        6.12051        0.031182284    6.12051      
      2800   0.28           0              22.235712      22.235712      0.027407032    22.235712    
      3000   0.3            0              35.917736      35.917736      0.024955437    35.917736    
      3200   0.32           0              47.818885      47.818885      0.022427444    47.818885    
      3400   0.34           0              57.961511      57.961511      0.020988847    57.961511    
      3600   0.36           0              67.259445      67.259445      0.020206541    67.259445    
      3800   0.38           0              74.725218      74.725218      0.019538009    74.725218    
      4000   0.4            0              82.035512      82.035512      0.020254532    82.035512    
      4200   0.42           0              88.580917      88.580917      0.020596302    88.580917    
      4400   0.44           0              94.434723      94.434723      0.022457419    94.434723    
      4600   0.46           0              99.515621      99.515621      0.024589197    99.515621    
      4800   0.48           0              104.0191       104.0191       0.021097383    104.0191     
      5000   0.5            0              108.77354      108.77354      0.01655968     108.77354    
      5200   0.52           0              112.20935      112.20935      0.016842991    112.20935    
      5400   0.54           0              115.46517      115.46517      0.015111943    115.46517    
      5600   0.56           0              118.4791       118.4791       0.012784791    118.4791     
      5800   0.58           0              121.23173      121.23173      0.011906866    121.23173    
      6000   0.6            0              123.8549       123.8549       0.010745295    123.8549     
      6200   0.62           0              126.36938      126.36938      0.0088042675   126.36938    
      6400   0.64           0              128.89918      128.89918      0.0065694481   128.89918    
      6600   0.66           0              131.11054      131.11054      0.0061485543   131.11054    
      6800   0.68           0              133.12876      133.12876      0.0056129017   133.12876    
      7000   0.7            0              134.53514      134.53514      0.007890216    134.53514    
      7200   0.72           0              136.15445      136.15445      0.0074362683   136.15445    
      7400   0.74           0              137.9113       137.9113       0.0073438261   137.9113     
      7600   0.76           0              139.12809      139.12809      0.0048645016   139.12809    
      7800   0.78           0              140.58352      140.58352      0.0058742579   140.58352    
      8000   0.8            0              141.78511      141.78511      0.0071182566   141.78511    
      8200   0.82           0              142.54565      142.54565      0.010053979    142.54565    
      8400   0.84           0              143.67567      143.67567      0.012182331    143.67567    
      8600   0.86           0              144.46434      144.46434      0.011946582    144.46434    
      8800   0.88           0              144.67877      144.67877      0.010587589    144.67877    
      9000   0.9            0              145.46248      145.46248      0.010928462    145.46248    
      9200   0.92           0              146.03844      146.03844      0.011005887    146.03844    
      9400   0.94           0              146.0138       146.0138       0.011568195    146.0138     
      9600   0.96           0              146.47725      146.47725      0.0082266933   146.47725    
      9800   0.98           0              146.9548       146.9548       0.0074126983   146.9548     
     10000   1              0              147.65263      147.65263      0.0090699605   147.65263    
     10200   1.02           0              148.52658      148.52658      0.011033731    148.52658    
     10400   1.04           0              149.05165      149.05165      0.0096781197   149.05165    
     10600   1.06           0              149.40979      149.40979      0.011860603    149.40979    
     10800   1.08           0              149.4732       149.4732       0.010592871    149.4732     
     11000   1.1            0              149.86649      149.86649      0.012662724    149.86649    
     11200   1.12           0              150.0345       150.0345       0.01518542     150.0345     
     11400   1.14           0              151.11051      151.11051      0.015233529    151.11051    
     11600   1.16           0              150.94866      150.94866      0.015059435    150.94866    
     11800   1.18           0              152.08905      152.08905      0.017116771    152.08905    
     12000   1.2            0              152.21754      152.21754      0.017216161    152.21754    
     12200   1.22           0              152.64072      152.64072      0.017177644    152.64072    
     12400   1.24           0              152.94716      152.94716      0.016947627    152.94716    
     12600   1.26           0              153.14512      153.14512      0.016356689    153.14512    
     12800   1.28           0              153.14428      153.14428      0.014112455    153.14428    
     13000   1.3            0              153.2835       153.2835       0.016207636    153.2835     
     13200   1.32           0              153.42716      153.42716      0.015876304    153.42716    
     13400   1.34           0              153.316        153.316        0.015295772    153.316      
     13600   1.36           0              153.30701      153.30701      0.016853174    153.30701    
     13800   1.38           0              153.50741      153.50741      0.017141823    153.50741    
     14000   1.4            0              153.71833      153.71833      0.016351112    153.71833    
     14200   1.42           0              153.97524      153.97524      0.015110137    153.97524    
     14400   1.44           0              154.01668      154.01668      0.011234645    154.01668    
     14600   1.46           0              154.34315      154.34315      0.010184164    154.34315    
     14800   1.48           0              154.65847      154.65847      0.0089348349   154.65847    
     15000   1.5            0              154.97214      154.97214      0.0089331081   154.97214    
     15200   1.52           0              155.05695      155.05695      0.0063677984   155.05695    
     15400   1.54           0              154.94341      154.94341      0.0092184246   154.94341    
     15600   1.56           0              155.12134      155.12134      0.0071179671   155.12134    
     15800   1.58           0              155.32477      155.32477      0.0089440346   155.32477    
     16000   1.6            0              155.20903      155.20903      0.0074543884   155.20903    
     16200   1.62           0              155.1686       155.1686       0.0071531801   155.1686     
     16400   1.64           0              155.38369      155.38369      0.0065583133   155.38369    
     16600   1.66           0              155.2666       155.2666       0.010011758    155.2666     
     16800   1.68           0              155.46428      155.46428      0.011469386    155.46428    
     17000   1.7            0              155.31236      155.31236      0.013184429    155.31236    
     17200   1.72           0              155.11603      155.11603      0.012532801    155.11603    
     17400   1.74           0              154.99103      154.99103      0.012974636    154.99103    
     17600   1.76           0              155.05682      155.05682      0.010905309    155.05682    
     17800   1.78           0              154.92345      154.92345      0.012248222    154.92345    
     18000   1.8            0              154.83341      154.83341      0.014417584    154.83341    
     18200   1.82           0              154.60712      154.60712      0.012592684    154.60712    
     18400   1.84           0              154.60423      154.60423      0.011976935    154.60423    
     18600   1.86           0              154.60447      154.60447      0.011959919    154.60447    
     18800   1.88           0              154.4397       154.4397       0.0099112769   154.4397     
     19000   1.9            0              154.60039      154.60039      0.013182278    154.60039    
     19200   1.92           0              154.96024      154.96024      0.012091103    154.96024    
     19400   1.94           0              154.94086      154.94086      0.014196484    154.94086    
     19600   1.96           0              155.2577       155.2577       0.0128755      155.2577     
     19800   1.98           0              154.96349      154.96349      0.012653422    154.96349    
     20000   2              0              154.91494      154.91494      0.010229444    154.91494    
     20200   2.02           0              154.40473      154.40473      0.0099783216   154.40473    
     20400   2.04           0              154.41574      154.41574      0.010079029    154.41574    
     20600   2.06           0              154.55694      154.55694      0.011210703    154.55694    
     20800   2.08           0              154.42295      154.42295      0.0078466212   154.42295    
     21000   2.1            0              154.49681      154.49681      0.0078190317   154.49681    
     21200   2.12           0              154.346        154.346        0.0063341578   154.346      
     21400   2.14           0              154.2952       154.2952       0.0055370767   154.2952     
     21600   2.16           0              154.23281      154.23281      0.0073301316   154.23281    
     21800   2.18           0              154.51639      154.51639      0.0066880096   154.51639    
     22000   2.2            0              154.39009      154.39009      0.0074579865   154.39009    
     22200   2.22           0              154.30472      154.30472      0.0072662081   154.30472    
     22400   2.24           0              154.1862       154.1862       0.0069480911   154.1862     
     22522   2.2522         0              154.42835      154.42835      0.0063864849   154.42835    
Loop time of 569.496 on 1 procs for 20000 steps with 15000 atoms

Performance: 0.303 ns/day, 79.097 hours/ns, 35.119 timesteps/s, 526.782 katom-step/s
100.0% CPU use with 1 MPI tasks x 1 OpenMP threads

MPI task timing breakdown:
Section |  min time  |  avg time  |  max time  |%varavg| %total
---------------------------------------------------------------
Pair    | 145.23     | 145.23     | 145.23     |   0.0 | 25.50
Neigh   | 0          | 0          | 0          |   0.0 |  0.00
Comm    | 0.50197    | 0.50197    | 0.50197    |   0.0 |  0.09
Output  | 0.91185    | 0.91185    | 0.91185    |   0.0 |  0.16
Modify  | 421.51     | 421.51     | 421.51     |   0.0 | 74.01
Other   |            | 1.348      |            |       |  0.24

Nlocal:          15000 ave       15000 max       15000 min
Histogram: 1 0 0 0 0 0 0 0 0 0
Nghost:            707 ave         707 max         707 min
Histogram: 1 0 0 0 0 0 0 0 0 0
Neighs:              0 ave           0 max           0 min
Histogram: 1 0 0 0 0 0 0 0 0 0
FullNghs:        90000 ave       90000 max       90000 min
Histogram: 1 0 0 0 0 0 0 0 0 0

Total # of neighbors = 90000
Ave neighs/atom = 6
Neighbor list builds = 0
Dangerous builds = 0
DYNAMICS_T214_DONE
Total wall time: 0:09:29
