LAMMPS (10 Dec 2025 - Development - patch_10Dec2025-120-ga51f9ba0e7)
OMP_NUM_THREADS environment is not set. Defaulting to 1 thread.
  using 1 OpenMP thread(s) per MPI task
Reading restart file ...
  restart file = 10 Dec 2025, LAMMPS = 10 Dec 2025
  restoring atom style spin from restart
  orthogonal box = (0 0 -1.3575) to (407.25 235.1259 1.3575)
  1 by 1 by 1 MPI processor grid
  restoring pair style hybrid/overlay from restart
  15000 atoms
  read_restart CPU = 0.003 seconds

CITE-CITE-CITE-CITE-CITE-CITE-CITE-CITE-CITE-CITE-CITE-CITE-CITE

Your simulation uses code contributions which should be cited:
- fix nve/spin command: https://doi.org/10.1016/j.jcp.2018.06.042
The log file lists these citations in BibTeX format.

CITE-CITE-CITE-CITE-CITE-CITE-CITE-CITE-CITE-CITE-CITE-CITE-CITE

Generated 0 of 0 mixed pair_coeff terms from geometric mixing rule
Neighbor list info ...
  update: every = 10 steps, delay = 20 steps, check = yes
  max neighbors/atom: 2000, page size: 100000
  master list distance cutoff = 3.558
  ghost atom cutoff = 3.558
  binsize = 1.779, bins = 229 133 2
  3 neighbor lists, perpetual/occasional/extra = 3 0 0
  (1) pair spin/exchange, perpetual
      attributes: full, newton on
      pair build: full/bin/atomonly
      stencil: full/bin/3d
      bin: standard
  (2) pair spin/dmi, perpetual, copy from (1)
      attributes: full, newton on
      pair build: copy
      stencil: none
      bin: none
  (3) pair spin/magelec, perpetual, copy from (1)
      attributes: full, newton on
      pair build: copy
      stencil: none
      bin: none
WARNING: Dump 1 includes no atom IDs and is not sorted by ID. This may complicate post-processing tasks or visualization (src/dump.cpp:220)
Setting up Verlet run ...
  Unit style    : metal
  Current step  : 2522
  Time step     : 0.0001
Per MPI rank memory allocation (min/avg/max) = 6.591 | 6.591 | 6.591 Mbytes
   Step          Time           Temp          PotEng         TotEng      c_out_mag[4]   c_out_mag[5] 
      2522   0.2522         0             -1.0275171     -1.0275171      0.030922721   -1.0275171    
      2600   0.26           0              6.7181287      6.7181287      0.030237047    6.7181287    
      2800   0.28           0              24.180079      24.180079      0.031231104    24.180079    
      3000   0.3            0              39.099158      39.099158      0.030961863    39.099158    
      3200   0.32           0              51.248886      51.248886      0.028884168    51.248886    
      3400   0.34           0              61.537452      61.537452      0.029798176    61.537452    
      3600   0.36           0              70.609749      70.609749      0.029642656    70.609749    
      3800   0.38           0              78.633611      78.633611      0.025137181    78.633611    
      4000   0.4            0              86.277429      86.277429      0.023856434    86.277429    
      4200   0.42           0              92.943426      92.943426      0.024439346    92.943426    
      4400   0.44           0              98.702421      98.702421      0.02160209     98.702421    
      4600   0.46           0              103.6462       103.6462       0.019518957    103.6462     
      4800   0.48           0              108.546        108.546        0.019694897    108.546      
      5000   0.5            0              112.66028      112.66028      0.015256382    112.66028    
      5200   0.52           0              116.28927      116.28927      0.014168053    116.28927    
      5400   0.54           0              119.22034      119.22034      0.014399768    119.22034    
      5600   0.56           0              122.68137      122.68137      0.013827347    122.68137    
      5800   0.58           0              124.84284      124.84284      0.016022535    124.84284    
      6000   0.6            0              127.50592      127.50592      0.015445011    127.50592    
      6200   0.62           0              130.1816       130.1816       0.01227645     130.1816     
      6400   0.64           0              132.31213      132.31213      0.012321483    132.31213    
      6600   0.66           0              134.50297      134.50297      0.011205973    134.50297    
      6800   0.68           0              136.10958      136.10958      0.011775769    136.10958    
      7000   0.7            0              137.38694      137.38694      0.010454666    137.38694    
      7200   0.72           0              139.30152      139.30152      0.011726241    139.30152    
      7400   0.74           0              140.70647      140.70647      0.013236902    140.70647    
      7600   0.76           0              142.09715      142.09715      0.012020352    142.09715    
      7800   0.78           0              143.10342      143.10342      0.01257859     143.10342    
      8000   0.8            0              144.35772      144.35772      0.010408103    144.35772    
      8200   0.82           0              144.97808      144.97808      0.0069157537   144.97808    
      8400   0.84           0              145.66164      145.66164      0.0073855676   145.66164    
      8600   0.86           0              146.5807       146.5807       0.0053212104   146.5807     
      8800   0.88           0              147.26356      147.26356      0.0074224488   147.26356    
      9000   0.9            0              147.88635      147.88635      0.0070958387   147.88635    
      9200   0.92           0              148.77341      148.77341      0.0074885037   148.77341    
      9400   0.94           0              148.89799      148.89799      0.0076835615   148.89799    
      9600   0.96           0              149.68896      149.68896      0.0054474642   149.68896    
      9800   0.98           0              150.02878      150.02878      0.0067823793   150.02878    
     10000   1              0              150.989        150.989        0.0061929814   150.989      
     10200   1.02           0              151.12097      151.12097      0.0075041148   151.12097    
     10400   1.04           0              151.64889      151.64889      0.008121163    151.64889    
     10600   1.06           0              152.09248      152.09248      0.0095674894   152.09248    
     10800   1.08           0              152.53331      152.53331      0.0082862028   152.53331    
     11000   1.1            0              152.97134      152.97134      0.0083616916   152.97134    
     11200   1.12           0              153.56571      153.56571      0.0085448314   153.56571    
     11400   1.14           0              154.00737      154.00737      0.0082826732   154.00737    
     11600   1.16           0              154.57668      154.57668      0.0064995833   154.57668    
     11800   1.18           0              154.5909       154.5909       0.0045810641   154.5909     
     12000   1.2            0              154.87714      154.87714      0.0054642549   154.87714    
     12200   1.22           0              155.01039      155.01039      0.0062637935   155.01039    
     12400   1.24           0              155.22525      155.22525      0.0077964027   155.22525    
     12600   1.26           0              155.4643       155.4643       0.0078547655   155.4643     
     12800   1.28           0              155.70991      155.70991      0.0090499352   155.70991    
     13000   1.3            0              155.4531       155.4531       0.010010833    155.4531     
     13200   1.32           0              155.90966      155.90966      0.011244814    155.90966    
     13400   1.34           0              156.00748      156.00748      0.011692812    156.00748    
     13600   1.36           0              156.09467      156.09467      0.012163121    156.09467    
     13800   1.38           0              156.08641      156.08641      0.01185353     156.08641    
     14000   1.4            0              156.30129      156.30129      0.0096895177   156.30129    
     14200   1.42           0              156.60954      156.60954      0.011396529    156.60954    
     14400   1.44           0              156.53815      156.53815      0.013860904    156.53815    
     14600   1.46           0              156.46466      156.46466      0.013505453    156.46466    
     14800   1.48           0              156.2239       156.2239       0.014667612    156.2239     
     15000   1.5            0              156.30318      156.30318      0.013149538    156.30318    
     15200   1.52           0              156.22789      156.22789      0.012878755    156.22789    
     15400   1.54           0              156.28732      156.28732      0.012305725    156.28732    
     15600   1.56           0              156.1504       156.1504       0.0094802897   156.1504     
     15800   1.58           0              156.50784      156.50784      0.0073745124   156.50784    
     16000   1.6            0              156.57487      156.57487      0.0072197119   156.57487    
     16200   1.62           0              156.69006      156.69006      0.007528216    156.69006    
     16400   1.64           0              157.1334       157.1334       0.0093080447   157.1334     
     16600   1.66           0              156.91874      156.91874      0.0089955311   156.91874    
     16800   1.68           0              156.96116      156.96116      0.0078791923   156.96116    
     17000   1.7            0              157.0787       157.0787       0.008923091    157.0787     
     17200   1.72           0              157.05944      157.05944      0.010188577    157.05944    
     17400   1.74           0              157.25839      157.25839      0.0094965408   157.25839    
     17600   1.76           0              156.98615      156.98615      0.008705399    156.98615    
     17800   1.78           0              157.08826      157.08826      0.0089915644   157.08826    
     18000   1.8            0              157.06532      157.06532      0.010163281    157.06532    
     18200   1.82           0              157.28228      157.28228      0.0075807385   157.28228    
     18400   1.84           0              157.07224      157.07224      0.0083625524   157.07224    
     18600   1.86           0              157.01685      157.01685      0.0068643644   157.01685    
     18800   1.88           0              157.13485      157.13485      0.0043102225   157.13485    
     19000   1.9            0              157.13824      157.13824      0.0057883735   157.13824    
     19200   1.92           0              157.34427      157.34427      0.0051326716   157.34427    
     19400   1.94           0              157.20311      157.20311      0.0077776409   157.20311    
     19600   1.96           0              156.62467      156.62467      0.005500838    156.62467    
     19800   1.98           0              156.95099      156.95099      0.0055961901   156.95099    
     20000   2              0              157.05171      157.05171      0.0060205942   157.05171    
     20200   2.02           0              157.14487      157.14487      0.0074694032   157.14487    
     20400   2.04           0              156.79425      156.79425      0.007866491    156.79425    
     20600   2.06           0              156.84333      156.84333      0.0066604887   156.84333    
     20800   2.08           0              156.69487      156.69487      0.0057896861   156.69487    
     21000   2.1            0              156.39193      156.39193      0.006299653    156.39193    
     21200   2.12           0              156.40658      156.40658      0.0066966651   156.40658    
     21400   2.14           0              156.66357      156.66357      0.010788481    156.66357    
     21600   2.16           0              156.00814      156.00814      0.011896995    156.00814    
     21800   2.18           0              155.89879      155.89879      0.013537637    155.89879    
     22000   2.2            0              155.87442      155.87442      0.012161476    155.87442    
     22200   2.22           0              155.80478      155.80478      0.012346754    155.80478    
     22400   2.24           0              156.20966      156.20966      0.013307918    156.20966    
     22522   2.2522         0              156.53576      156.53576      0.012479041    156.53576    
Loop time of 519.848 on 1 procs for 20000 steps with 15000 atoms

Performance: 0.332 ns/day, 72.201 hours/ns, 38.473 timesteps/s, 577.092 katom-step/s
99.9% CPU use with 1 MPI tasks x 1 OpenMP threads

MPI task timing breakdown:
Section |  min time  |  avg time  |  max time  |%varavg| %total
---------------------------------------------------------------
Pair    | 133.41     | 133.41     | 133.41     |   0.0 | 25.66
Neigh   | 0          | 0          | 0          |   0.0 |  0.00
Comm    | 1.2609     | 1.2609     | 1.2609     |   0.0 |  0.24
Output  | 0.87694    | 0.87694    | 0.87694    |   0.0 |  0.17
Modify  | 380.88     | 380.88     | 380.88     |   0.0 | 73.27
Other   |            | 3.419      |            |       |  0.66

Nlocal:          15000 ave       15000 max       15000 min
Histogram: 1 0 0 0 0 0 0 0 0 0
Nghost:            707 ave         707 max         707 min
Histogram: 1 0 0 0 0 0 0 0 0 0
Neighs:              0 ave           0 max           0 min
Histogram: 1 0 0 0 0 0 0 0 0 0
FullNghs:        90000 ave       90000 max       90000 min
Histogram: 1 0 0 0 0 0 0 0 0 0

Total # of neighbors = 90000
Ave neighs/atom = 6
Neighbor list builds = 0
Dangerous builds = 0
DYNAMICS_T230_DONE
Total wall time: 0:08:39
