LAMMPS (10 Dec 2025 - Development - patch_10Dec2025-120-ga51f9ba0e7)
OMP_NUM_THREADS environment is not set. Defaulting to 1 thread.
  using 1 OpenMP thread(s) per MPI task
Reading restart file ...
  restart file = 10 Dec 2025, LAMMPS = 10 Dec 2025
  restoring atom style spin from restart
  orthogonal box = (0 0 -1.3575) to (407.25 235.1259 1.3575)
  1 by 1 by 1 MPI processor grid
  restoring pair style hybrid/overlay from restart
  15000 atoms
  read_restart CPU = 0.003 seconds

CITE-CITE-CITE-CITE-CITE-CITE-CITE-CITE-CITE-CITE-CITE-CITE-CITE

Your simulation uses code contributions which should be cited:
- fix nve/spin command: https://doi.org/10.1016/j.jcp.2018.06.042
The log file lists these citations in BibTeX format.

CITE-CITE-CITE-CITE-CITE-CITE-CITE-CITE-CITE-CITE-CITE-CITE-CITE

Generated 0 of 0 mixed pair_coeff terms from geometric mixing rule
Neighbor list info ...
  update: every = 10 steps, delay = 20 steps, check = yes
  max neighbors/atom: 2000, page size: 100000
  master list distance cutoff = 3.558
  ghost atom cutoff = 3.558
  binsize = 1.779, bins = 229 133 2
  3 neighbor lists, perpetual/occasional/extra = 3 0 0
  (1) pair spin/exchange, perpetual
      attributes: full, newton on
      pair build: full/bin/atomonly
      stencil: full/bin/3d
      bin: standard
  (2) pair spin/dmi, perpetual, copy from (1)
      attributes: full, newton on
      pair build: copy
      stencil: none
      bin: none
  (3) pair spin/magelec, perpetual, copy from (1)
      attributes: full, newton on
      pair build: copy
      stencil: none
      bin: none
WARNING: Dump 1 includes no atom IDs and is not sorted by ID. This may complicate post-processing tasks or visualization (src/dump.cpp:220)
Setting up Verlet run ...
  Unit style    : metal
  Current step  : 2522
  Time step     : 0.0001
Per MPI rank memory allocation (min/avg/max) = 6.591 | 6.591 | 6.591 Mbytes
   Step          Time           Temp          PotEng         TotEng      c_out_mag[4]   c_out_mag[5] 
      2522   0.2522         0             -1.0275171     -1.0275171      0.030922721   -1.0275171    
      2600   0.26           0              0.68765046     0.68765046     0.030743776    0.68765046   
      2800   0.28           0              4.7869623      4.7869623      0.031323549    4.7869623    
      3000   0.3            0              8.5504271      8.5504271      0.031778827    8.5504271    
      3200   0.32           0              11.860915      11.860915      0.031174693    11.860915    
      3400   0.34           0              14.838372      14.838372      0.03165043     14.838372    
      3600   0.36           0              17.518389      17.518389      0.031532488    17.518389    
      3800   0.38           0              19.918641      19.918641      0.029422662    19.918641    
      4000   0.4            0              22.342777      22.342777      0.02861135     22.342777    
      4200   0.42           0              24.766895      24.766895      0.029158143    24.766895    
      4400   0.44           0              26.750402      26.750402      0.027729228    26.750402    
      4600   0.46           0              28.456381      28.456381      0.027419071    28.456381    
      4800   0.48           0              30.258317      30.258317      0.027495384    30.258317    
      5000   0.5            0              31.996476      31.996476      0.026449456    31.996476    
      5200   0.52           0              33.459878      33.459878      0.02664371     33.459878    
      5400   0.54           0              34.664188      34.664188      0.026342579    34.664188    
      5600   0.56           0              35.897619      35.897619      0.025591808    35.897619    
      5800   0.58           0              37.126909      37.126909      0.026096013    37.126909    
      6000   0.6            0              38.154378      38.154378      0.026455493    38.154378    
      6200   0.62           0              39.164974      39.164974      0.025313352    39.164974    
      6400   0.64           0              40.612211      40.612211      0.02509652     40.612211    
      6600   0.66           0              41.584171      41.584171      0.024232285    41.584171    
      6800   0.68           0              42.661423      42.661423      0.024145155    42.661423    
      7000   0.7            0              43.51852       43.51852       0.024061671    43.51852     
      7200   0.72           0              44.029755      44.029755      0.02390068     44.029755    
      7400   0.74           0              45.169946      45.169946      0.025095272    45.169946    
      7600   0.76           0              45.860531      45.860531      0.024818482    45.860531    
      7800   0.78           0              46.815539      46.815539      0.025425452    46.815539    
      8000   0.8            0              47.739696      47.739696      0.024148701    47.739696    
      8200   0.82           0              48.483925      48.483925      0.023510385    48.483925    
      8400   0.84           0              48.942095      48.942095      0.02328379     48.942095    
      8600   0.86           0              49.487077      49.487077      0.024072166    49.487077    
      8800   0.88           0              49.921084      49.921084      0.025362929    49.921084    
      9000   0.9            0              50.413629      50.413629      0.024691817    50.413629    
      9200   0.92           0              50.968334      50.968334      0.024910524    50.968334    
      9400   0.94           0              51.645517      51.645517      0.025420268    51.645517    
      9600   0.96           0              52.155029      52.155029      0.025319113    52.155029    
      9800   0.98           0              52.706348      52.706348      0.023511999    52.706348    
     10000   1              0              53.083847      53.083847      0.024676558    53.083847    
     10200   1.02           0              53.679766      53.679766      0.024528619    53.679766    
     10400   1.04           0              54.068825      54.068825      0.026110759    54.068825    
     10600   1.06           0              54.353851      54.353851      0.026539598    54.353851    
     10800   1.08           0              54.861906      54.861906      0.026862109    54.861906    
     11000   1.1            0              55.523513      55.523513      0.027953952    55.523513    
     11200   1.12           0              55.80612       55.80612       0.027795674    55.80612     
     11400   1.14           0              56.037173      56.037173      0.027126321    56.037173    
     11600   1.16           0              56.292585      56.292585      0.025657208    56.292585    
     11800   1.18           0              56.792641      56.792641      0.025399257    56.792641    
     12000   1.2            0              57.344078      57.344078      0.025017412    57.344078    
     12200   1.22           0              57.594194      57.594194      0.024682322    57.594194    
     12400   1.24           0              57.899312      57.899312      0.023643529    57.899312    
     12600   1.26           0              58.0095        58.0095        0.023269651    58.0095      
     12800   1.28           0              58.147373      58.147373      0.021319007    58.147373    
     13000   1.3            0              58.418833      58.418833      0.020942224    58.418833    
     13200   1.32           0              58.598073      58.598073      0.021325392    58.598073    
     13400   1.34           0              58.72531       58.72531       0.020130568    58.72531     
     13600   1.36           0              59.140326      59.140326      0.020725924    59.140326    
     13800   1.38           0              59.166944      59.166944      0.021819085    59.166944    
     14000   1.4            0              59.536081      59.536081      0.020219733    59.536081    
     14200   1.42           0              59.780547      59.780547      0.019555666    59.780547    
     14400   1.44           0              59.753462      59.753462      0.020523249    59.753462    
     14600   1.46           0              60.364327      60.364327      0.021131266    60.364327    
     14800   1.48           0              60.453862      60.453862      0.021220903    60.453862    
     15000   1.5            0              60.717785      60.717785      0.022240863    60.717785    
     15200   1.52           0              60.645481      60.645481      0.022075254    60.645481    
     15400   1.54           0              60.55701       60.55701       0.021912786    60.55701     
     15600   1.56           0              60.810023      60.810023      0.021959539    60.810023    
     15800   1.58           0              61.012108      61.012108      0.021083777    61.012108    
     16000   1.6            0              61.137349      61.137349      0.021020704    61.137349    
     16200   1.62           0              61.393116      61.393116      0.021514186    61.393116    
     16400   1.64           0              61.898751      61.898751      0.023431786    61.898751    
     16600   1.66           0              62.045879      62.045879      0.025085551    62.045879    
     16800   1.68           0              62.05065       62.05065       0.024936256    62.05065     
     17000   1.7            0              62.303695      62.303695      0.024352218    62.303695    
     17200   1.72           0              62.678144      62.678144      0.024923252    62.678144    
     17400   1.74           0              62.851917      62.851917      0.026216635    62.851917    
     17600   1.76           0              62.726669      62.726669      0.026351398    62.726669    
     17800   1.78           0              62.901122      62.901122      0.027098646    62.901122    
     18000   1.8            0              63.215171      63.215171      0.028131015    63.215171    
     18200   1.82           0              63.151033      63.151033      0.027450569    63.151033    
     18400   1.84           0              63.22747       63.22747       0.027586306    63.22747     
     18600   1.86           0              63.299203      63.299203      0.027204199    63.299203    
     18800   1.88           0              63.533841      63.533841      0.027882394    63.533841    
     19000   1.9            0              63.688566      63.688566      0.028269177    63.688566    
     19200   1.92           0              63.92722       63.92722       0.028113464    63.92722     
     19400   1.94           0              63.903924      63.903924      0.03005434     63.903924    
     19600   1.96           0              64.209428      64.209428      0.030957701    64.209428    
     19800   1.98           0              64.723857      64.723857      0.030733412    64.723857    
     20000   2              0              64.877186      64.877186      0.030423888    64.877186    
     20200   2.02           0              65.003516      65.003516      0.032048614    65.003516    
     20400   2.04           0              65.057726      65.057726      0.032099818    65.057726    
     20600   2.06           0              65.180432      65.180432      0.033344966    65.180432    
     20800   2.08           0              65.292781      65.292781      0.033066256    65.292781    
     21000   2.1            0              65.33278       65.33278       0.03389943     65.33278     
     21200   2.12           0              65.653778      65.653778      0.033301553    65.653778    
     21400   2.14           0              65.878517      65.878517      0.033592832    65.878517    
     21600   2.16           0              65.960304      65.960304      0.033446481    65.960304    
     21800   2.18           0              66.133583      66.133583      0.033580189    66.133583    
     22000   2.2            0              66.36521       66.36521       0.032661473    66.36521     
     22200   2.22           0              66.566554      66.566554      0.031646073    66.566554    
     22400   2.24           0              66.475942      66.475942      0.032365908    66.475942    
     22522   2.2522         0              66.518793      66.518793      0.031837454    66.518793    
Loop time of 494.915 on 1 procs for 20000 steps with 15000 atoms

Performance: 0.349 ns/day, 68.738 hours/ns, 40.411 timesteps/s, 606.164 katom-step/s
99.9% CPU use with 1 MPI tasks x 1 OpenMP threads

MPI task timing breakdown:
Section |  min time  |  avg time  |  max time  |%varavg| %total
---------------------------------------------------------------
Pair    | 125.3      | 125.3      | 125.3      |   0.0 | 25.32
Neigh   | 0          | 0          | 0          |   0.0 |  0.00
Comm    | 0.36096    | 0.36096    | 0.36096    |   0.0 |  0.07
Output  | 0.79867    | 0.79867    | 0.79867    |   0.0 |  0.16
Modify  | 367.66     | 367.66     | 367.66     |   0.0 | 74.29
Other   |            | 0.7928     |            |       |  0.16

Nlocal:          15000 ave       15000 max       15000 min
Histogram: 1 0 0 0 0 0 0 0 0 0
Nghost:            707 ave         707 max         707 min
Histogram: 1 0 0 0 0 0 0 0 0 0
Neighs:              0 ave           0 max           0 min
Histogram: 1 0 0 0 0 0 0 0 0 0
FullNghs:        90000 ave       90000 max       90000 min
Histogram: 1 0 0 0 0 0 0 0 0 0

Total # of neighbors = 90000
Ave neighs/atom = 6
Neighbor list builds = 0
Dangerous builds = 0
DYNAMICS_T50_DONE
Total wall time: 0:08:14
