LAMMPS (10 Dec 2025 - Development - patch_10Dec2025-120-ga51f9ba0e7)
OMP_NUM_THREADS environment is not set. Defaulting to 1 thread.
  using 1 OpenMP thread(s) per MPI task
Reading restart file ...
  restart file = 10 Dec 2025, LAMMPS = 10 Dec 2025
  restoring atom style spin from restart
  orthogonal box = (0 0 -1.3575) to (407.25 235.1259 1.3575)
  1 by 1 by 1 MPI processor grid
  restoring pair style hybrid/overlay from restart
  15000 atoms
  read_restart CPU = 0.003 seconds

CITE-CITE-CITE-CITE-CITE-CITE-CITE-CITE-CITE-CITE-CITE-CITE-CITE

Your simulation uses code contributions which should be cited:
- fix nve/spin command: https://doi.org/10.1016/j.jcp.2018.06.042
The log file lists these citations in BibTeX format.

CITE-CITE-CITE-CITE-CITE-CITE-CITE-CITE-CITE-CITE-CITE-CITE-CITE

Generated 0 of 0 mixed pair_coeff terms from geometric mixing rule
Neighbor list info ...
  update: every = 10 steps, delay = 20 steps, check = yes
  max neighbors/atom: 2000, page size: 100000
  master list distance cutoff = 3.558
  ghost atom cutoff = 3.558
  binsize = 1.779, bins = 229 133 2
  3 neighbor lists, perpetual/occasional/extra = 3 0 0
  (1) pair spin/exchange, perpetual
      attributes: full, newton on
      pair build: full/bin/atomonly
      stencil: full/bin/3d
      bin: standard
  (2) pair spin/dmi, perpetual, copy from (1)
      attributes: full, newton on
      pair build: copy
      stencil: none
      bin: none
  (3) pair spin/magelec, perpetual, copy from (1)
      attributes: full, newton on
      pair build: copy
      stencil: none
      bin: none
WARNING: Dump 1 includes no atom IDs and is not sorted by ID. This may complicate post-processing tasks or visualization (src/dump.cpp:220)
Setting up Verlet run ...
  Unit style    : metal
  Current step  : 2522
  Time step     : 0.0001
Per MPI rank memory allocation (min/avg/max) = 6.591 | 6.591 | 6.591 Mbytes
   Step          Time           Temp          PotEng         TotEng      c_out_mag[4]   c_out_mag[5] 
      2522   0.2522         0             -1.0275171     -1.0275171      0.030922721   -1.0275171    
      2600   0.26           0              6.058974       6.058974       0.030291813    6.058974     
      2800   0.28           0              22.138344      22.138344      0.031265362    22.138344    
      3000   0.3            0              35.991902      35.991902      0.031113843    35.991902    
      3200   0.32           0              47.374372      47.374372      0.029177876    47.374372    
      3400   0.34           0              57.079273      57.079273      0.030047004    57.079273    
      3600   0.36           0              65.671708      65.671708      0.029884528    65.671708    
      3800   0.38           0              73.301954      73.301954      0.025540629    73.301954    
      4000   0.4            0              80.626741      80.626741      0.024252896    80.626741    
      4200   0.42           0              87.115513      87.115513      0.02489231     87.115513    
      4400   0.44           0              92.705273      92.705273      0.022086437    92.705273    
      4600   0.46           0              97.537474      97.537474      0.020184631    97.537474    
      4800   0.48           0              102.36108      102.36108      0.020466313    102.36108    
      5000   0.5            0              106.44938      106.44938      0.016466847    106.44938    
      5200   0.52           0              110.13729      110.13729      0.015513261    110.13729    
      5400   0.54           0              113.06493      113.06493      0.015417923    113.06493    
      5600   0.56           0              116.53844      116.53844      0.014606136    116.53844    
      5800   0.58           0              118.79802      118.79802      0.016787194    118.79802    
      6000   0.6            0              121.51299      121.51299      0.016140613    121.51299    
      6200   0.62           0              124.25446      124.25446      0.013176172    124.25446    
      6400   0.64           0              126.54636      126.54636      0.01258885     126.54636    
      6600   0.66           0              128.86209      128.86209      0.011576116    128.86209    
      6800   0.68           0              130.72713      130.72713      0.01198034     130.72713    
      7000   0.7            0              132.13539      132.13539      0.010706317    132.13539    
      7200   0.72           0              134.18487      134.18487      0.011974111    134.18487    
      7400   0.74           0              135.55609      135.55609      0.012745792    135.55609    
      7600   0.76           0              136.94097      136.94097      0.012685991    136.94097    
      7800   0.78           0              137.95909      137.95909      0.01313737     137.95909    
      8000   0.8            0              139.34278      139.34278      0.01198143     139.34278    
      8200   0.82           0              140.01933      140.01933      0.0089717546   140.01933    
      8400   0.84           0              141.00648      141.00648      0.010538904    141.00648    
      8600   0.86           0              142.29684      142.29684      0.0087933939   142.29684    
      8800   0.88           0              143.11507      143.11507      0.012305662    143.11507    
      9000   0.9            0              143.96112      143.96112      0.01326003     143.96112    
      9200   0.92           0              144.82741      144.82741      0.013288779    144.82741    
      9400   0.94           0              144.94439      144.94439      0.013103425    144.94439    
      9600   0.96           0              145.88499      145.88499      0.011925835    145.88499    
      9800   0.98           0              146.39989      146.39989      0.0093612501   146.39989    
     10000   1              0              147.40667      147.40667      0.0095575519   147.40667    
     10200   1.02           0              147.93819      147.93819      0.010329806    147.93819    
     10400   1.04           0              148.60369      148.60369      0.011401627    148.60369    
     10600   1.06           0              149.1674       149.1674       0.010887557    149.1674     
     10800   1.08           0              149.35464      149.35464      0.011420639    149.35464    
     11000   1.1            0              149.61364      149.61364      0.010826639    149.61364    
     11200   1.12           0              150.12         150.12         0.010394332    150.12       
     11400   1.14           0              150.37427      150.37427      0.010405111    150.37427    
     11600   1.16           0              150.98419      150.98419      0.0087537389   150.98419    
     11800   1.18           0              151.63171      151.63171      0.010882462    151.63171    
     12000   1.2            0              151.79729      151.79729      0.010672177    151.79729    
     12200   1.22           0              152.73855      152.73855      0.0096453419   152.73855    
     12400   1.24           0              152.69389      152.69389      0.0082842917   152.69389    
     12600   1.26           0              152.94115      152.94115      0.0094354673   152.94115    
     12800   1.28           0              153.14731      153.14731      0.010238249    153.14731    
     13000   1.3            0              153.14448      153.14448      0.010440098    153.14448    
     13200   1.32           0              153.37879      153.37879      0.0091880068   153.37879    
     13400   1.34           0              153.27959      153.27959      0.010471584    153.27959    
     13600   1.36           0              153.70837      153.70837      0.0076579034   153.70837    
     13800   1.38           0              153.60923      153.60923      0.0041527075   153.60923    
     14000   1.4            0              153.79516      153.79516      0.0026109288   153.79516    
     14200   1.42           0              154.0155       154.0155       0.0026870779   154.0155     
     14400   1.44           0              154.28614      154.28614      0.0038948552   154.28614    
     14600   1.46           0              154.39559      154.39559      0.0022906079   154.39559    
     14800   1.48           0              154.23543      154.23543      0.0044995712   154.23543    
     15000   1.5            0              153.85223      153.85223      0.0057093638   153.85223    
     15200   1.52           0              153.93773      153.93773      0.0038634799   153.93773    
     15400   1.54           0              153.86441      153.86441      0.0046268768   153.86441    
     15600   1.56           0              154.14719      154.14719      0.0046821554   154.14719    
     15800   1.58           0              154.39175      154.39175      0.0063346622   154.39175    
     16000   1.6            0              154.64897      154.64897      0.006335848    154.64897    
     16200   1.62           0              154.50916      154.50916      0.010939795    154.50916    
     16400   1.64           0              154.53165      154.53165      0.0097094881   154.53165    
     16600   1.66           0              154.3254       154.3254       0.011427642    154.3254     
     16800   1.68           0              154.71621      154.71621      0.010352934    154.71621    
     17000   1.7            0              154.36389      154.36389      0.0092599314   154.36389    
     17200   1.72           0              154.59396      154.59396      0.010156104    154.59396    
     17400   1.74           0              154.7007       154.7007       0.010323447    154.7007     
     17600   1.76           0              155.19391      155.19391      0.0084435933   155.19391    
     17800   1.78           0              155.33499      155.33499      0.0074977315   155.33499    
     18000   1.8            0              154.95474      154.95474      0.0061824544   154.95474    
     18200   1.82           0              154.87947      154.87947      0.0056574196   154.87947    
     18400   1.84           0              154.86805      154.86805      0.0062130375   154.86805    
     18600   1.86           0              154.22077      154.22077      0.0057908216   154.22077    
     18800   1.88           0              154.07321      154.07321      0.006610396    154.07321    
     19000   1.9            0              154.11713      154.11713      0.0071403239   154.11713    
     19200   1.92           0              153.74508      153.74508      0.005451263    153.74508    
     19400   1.94           0              153.97151      153.97151      0.0063150344   153.97151    
     19600   1.96           0              154.54101      154.54101      0.0059953103   154.54101    
     19800   1.98           0              154.76085      154.76085      0.0069252882   154.76085    
     20000   2              0              154.99502      154.99502      0.0048571828   154.99502    
     20200   2.02           0              155.11132      155.11132      0.006723779    155.11132    
     20400   2.04           0              154.93543      154.93543      0.0090840613   154.93543    
     20600   2.06           0              154.83973      154.83973      0.0084648629   154.83973    
     20800   2.08           0              155.31721      155.31721      0.0079368153   155.31721    
     21000   2.1            0              154.97077      154.97077      0.0084393795   154.97077    
     21200   2.12           0              154.71957      154.71957      0.0083954087   154.71957    
     21400   2.14           0              154.90396      154.90396      0.0078940348   154.90396    
     21600   2.16           0              154.70932      154.70932      0.0074641618   154.70932    
     21800   2.18           0              154.61477      154.61477      0.00482099     154.61477    
     22000   2.2            0              154.52456      154.52456      0.0070176115   154.52456    
     22200   2.22           0              154.29001      154.29001      0.0069605439   154.29001    
     22400   2.24           0              154.20471      154.20471      0.0060664168   154.20471    
     22522   2.2522         0              154.46661      154.46661      0.0060700497   154.46661    
Loop time of 543.614 on 1 procs for 20000 steps with 15000 atoms

Performance: 0.318 ns/day, 75.502 hours/ns, 36.791 timesteps/s, 551.862 katom-step/s
99.9% CPU use with 1 MPI tasks x 1 OpenMP threads

MPI task timing breakdown:
Section |  min time  |  avg time  |  max time  |%varavg| %total
---------------------------------------------------------------
Pair    | 140.77     | 140.77     | 140.77     |   0.0 | 25.90
Neigh   | 0          | 0          | 0          |   0.0 |  0.00
Comm    | 1.4665     | 1.4665     | 1.4665     |   0.0 |  0.27
Output  | 0.91082    | 0.91082    | 0.91082    |   0.0 |  0.17
Modify  | 396.51     | 396.51     | 396.51     |   0.0 | 72.94
Other   |            | 3.951      |            |       |  0.73

Nlocal:          15000 ave       15000 max       15000 min
Histogram: 1 0 0 0 0 0 0 0 0 0
Nghost:            707 ave         707 max         707 min
Histogram: 1 0 0 0 0 0 0 0 0 0
Neighs:              0 ave           0 max           0 min
Histogram: 1 0 0 0 0 0 0 0 0 0
FullNghs:        90000 ave       90000 max       90000 min
Histogram: 1 0 0 0 0 0 0 0 0 0

Total # of neighbors = 90000
Ave neighs/atom = 6
Neighbor list builds = 0
Dangerous builds = 0
DYNAMICS_T210_DONE
Total wall time: 0:09:03
