LAMMPS (10 Dec 2025 - Development - patch_10Dec2025-120-ga51f9ba0e7)
OMP_NUM_THREADS environment is not set. Defaulting to 1 thread.
  using 1 OpenMP thread(s) per MPI task
Reading restart file ...
  restart file = 10 Dec 2025, LAMMPS = 10 Dec 2025
  restoring atom style spin from restart
  triclinic box = (0 0 0) to (86.604109 72.44143 33.758371) with tilt (47.827887 47.809739 49.151162)
WARNING: Triclinic box skew is large. LAMMPS will run inefficiently. (src/domain.cpp:221)
  1 by 1 by 1 MPI processor grid
  restoring pair style hybrid/overlay from restart
  2048 atoms
  read_restart CPU = 0.001 seconds

CITE-CITE-CITE-CITE-CITE-CITE-CITE-CITE-CITE-CITE-CITE-CITE-CITE

Your simulation uses code contributions which should be cited:
- fix nve/spin command: https://doi.org/10.1016/j.jcp.2018.06.042
The log file lists these citations in BibTeX format.

CITE-CITE-CITE-CITE-CITE-CITE-CITE-CITE-CITE-CITE-CITE-CITE-CITE

Generated 0 of 0 mixed pair_coeff terms from geometric mixing rule
Neighbor list info ...
  update: every = 10 steps, delay = 20 steps, check = yes
  max neighbors/atom: 2000, page size: 100000
  master list distance cutoff = 5.55
  ghost atom cutoff = 5.55
  binsize = 2.775, bins = 66 44 13
  3 neighbor lists, perpetual/occasional/extra = 3 0 0
  (1) pair spin/exchange, perpetual
      attributes: full, newton on
      pair build: full/bin/atomonly
      stencil: full/bin/3d
      bin: standard
  (2) pair spin/dmi, perpetual, copy from (1)
      attributes: full, newton on
      pair build: copy
      stencil: none
      bin: none
  (3) pair spin/magelec, perpetual, copy from (1)
      attributes: full, newton on
      pair build: copy
      stencil: none
      bin: none
WARNING: Dump 1 includes no atom IDs and is not sorted by ID. This may complicate post-processing tasks or visualization (src/dump.cpp:220)
Setting up Verlet run ...
  Unit style    : metal
  Current step  : 396
  Time step     : 0.0001
Per MPI rank memory allocation (min/avg/max) = 5.919 | 5.919 | 5.919 Mbytes
   Step          Time           Temp          PotEng         TotEng      c_out_mag[4]   c_out_mag[5] 
       396   0.0396         0              0.16923922     0.16923922     0.071743915    0.16923922   
       400   0.04           0              0.1771214      0.1771214      0.071759124    0.1771214    
       600   0.06           0              0.51724348     0.51724348     0.072344471    0.51724348   
       800   0.08           0              0.81130673     0.81130673     0.071900883    0.81130673   
      1000   0.1            0              1.0137087      1.0137087      0.073298453    1.0137087    
      1200   0.12           0              1.1696034      1.1696034      0.07294905     1.1696034    
      1400   0.14           0              1.3171351      1.3171351      0.073199486    1.3171351    
      1600   0.16           0              1.4240611      1.4240611      0.0738689      1.4240611    
      1800   0.18           0              1.4835121      1.4835121      0.073474458    1.4835121    
      2000   0.2            0              1.5248506      1.5248506      0.073661835    1.5248506    
      2200   0.22           0              1.5893723      1.5893723      0.072240122    1.5893723    
      2400   0.24           0              1.6145737      1.6145737      0.072523594    1.6145737    
      2600   0.26           0              1.6821177      1.6821177      0.071735895    1.6821177    
      2800   0.28           0              1.7157507      1.7157507      0.070635093    1.7157507    
      3000   0.3            0              1.8072553      1.8072553      0.071227138    1.8072553    
      3200   0.32           0              1.8026708      1.8026708      0.071121029    1.8026708    
      3400   0.34           0              1.8075984      1.8075984      0.071475116    1.8075984    
      3600   0.36           0              1.8340801      1.8340801      0.070909871    1.8340801    
      3800   0.38           0              1.8169209      1.8169209      0.071469297    1.8169209    
      4000   0.4            0              1.7794069      1.7794069      0.072893696    1.7794069    
      4200   0.42           0              1.802835       1.802835       0.074412952    1.802835     
      4400   0.44           0              1.8306564      1.8306564      0.073596599    1.8306564    
      4600   0.46           0              1.8136905      1.8136905      0.073090402    1.8136905    
      4800   0.48           0              1.8346783      1.8346783      0.075198693    1.8346783    
      5000   0.5            0              1.8968656      1.8968656      0.074463719    1.8968656    
      5200   0.52           0              1.8145902      1.8145902      0.073810558    1.8145902    
      5400   0.54           0              1.8402152      1.8402152      0.073718578    1.8402152    
      5600   0.56           0              1.8475909      1.8475909      0.073596107    1.8475909    
      5800   0.58           0              1.848986       1.848986       0.073376085    1.848986     
      6000   0.6            0              1.8665895      1.8665895      0.073171267    1.8665895    
      6200   0.62           0              1.8173391      1.8173391      0.073191871    1.8173391    
      6400   0.64           0              1.8196513      1.8196513      0.073535252    1.8196513    
      6600   0.66           0              1.8466138      1.8466138      0.073415824    1.8466138    
      6800   0.68           0              1.8592855      1.8592855      0.074578522    1.8592855    
      7000   0.7            0              1.8735664      1.8735664      0.075386171    1.8735664    
      7200   0.72           0              1.864344       1.864344       0.074602691    1.864344     
      7400   0.74           0              1.8680331      1.8680331      0.074678071    1.8680331    
      7600   0.76           0              1.8670444      1.8670444      0.075640739    1.8670444    
      7800   0.78           0              1.8470274      1.8470274      0.075520255    1.8470274    
      8000   0.8            0              1.8747445      1.8747445      0.074406408    1.8747445    
      8200   0.82           0              1.8970444      1.8970444      0.074431192    1.8970444    
      8400   0.84           0              1.9173389      1.9173389      0.075588678    1.9173389    
      8600   0.86           0              1.901868       1.901868       0.075787819    1.901868     
      8800   0.88           0              1.8662465      1.8662465      0.076243954    1.8662465    
      9000   0.9            0              1.854285       1.854285       0.075206383    1.854285     
      9200   0.92           0              1.8590776      1.8590776      0.075985249    1.8590776    
      9400   0.94           0              1.8819055      1.8819055      0.075969378    1.8819055    
      9600   0.96           0              1.905935       1.905935       0.076149968    1.905935     
      9800   0.98           0              1.9240567      1.9240567      0.075971375    1.9240567    
     10000   1              0              1.9206476      1.9206476      0.076638106    1.9206476    
     10200   1.02           0              1.9281348      1.9281348      0.076301174    1.9281348    
     10400   1.04           0              1.9222019      1.9222019      0.075684315    1.9222019    
     10600   1.06           0              1.9401589      1.9401589      0.075736199    1.9401589    
     10800   1.08           0              1.8900333      1.8900333      0.075460714    1.8900333    
     11000   1.1            0              1.8903081      1.8903081      0.073709803    1.8903081    
     11200   1.12           0              1.9141109      1.9141109      0.073236562    1.9141109    
     11400   1.14           0              1.9024092      1.9024092      0.07349793     1.9024092    
     11600   1.16           0              1.8996566      1.8996566      0.073193995    1.8996566    
     11800   1.18           0              1.9131688      1.9131688      0.072227393    1.9131688    
     12000   1.2            0              1.883829       1.883829       0.072103799    1.883829     
     12200   1.22           0              1.9018555      1.9018555      0.072473441    1.9018555    
     12400   1.24           0              1.9194302      1.9194302      0.071466103    1.9194302    
     12600   1.26           0              1.9422634      1.9422634      0.070659214    1.9422634    
     12800   1.28           0              1.9491911      1.9491911      0.069972879    1.9491911    
     13000   1.3            0              1.9234576      1.9234576      0.069312967    1.9234576    
     13200   1.32           0              1.899948       1.899948       0.069463955    1.899948     
     13400   1.34           0              1.8740281      1.8740281      0.070630321    1.8740281    
     13600   1.36           0              1.9512012      1.9512012      0.07017401     1.9512012    
     13800   1.38           0              1.9568091      1.9568091      0.069230652    1.9568091    
     14000   1.4            0              1.92399        1.92399        0.06923098     1.92399      
     14200   1.42           0              1.9226402      1.9226402      0.069015578    1.9226402    
     14400   1.44           0              1.9485873      1.9485873      0.068979235    1.9485873    
     14600   1.46           0              1.9524949      1.9524949      0.068246443    1.9524949    
     14800   1.48           0              1.9207582      1.9207582      0.067931083    1.9207582    
     15000   1.5            0              1.8643387      1.8643387      0.068430222    1.8643387    
     15200   1.52           0              1.8736583      1.8736583      0.068730654    1.8736583    
     15400   1.54           0              1.9128804      1.9128804      0.068296216    1.9128804    
     15600   1.56           0              1.900789       1.900789       0.066693501    1.900789     
     15800   1.58           0              1.8734513      1.8734513      0.066258688    1.8734513    
     16000   1.6            0              1.9207219      1.9207219      0.067105792    1.9207219    
     16200   1.62           0              1.8912013      1.8912013      0.067364009    1.8912013    
     16400   1.64           0              1.9162193      1.9162193      0.066637812    1.9162193    
     16600   1.66           0              1.8783903      1.8783903      0.065920363    1.8783903    
     16800   1.68           0              1.9031669      1.9031669      0.065849553    1.9031669    
     17000   1.7            0              1.9033236      1.9033236      0.066305194    1.9033236    
     17200   1.72           0              1.8611334      1.8611334      0.065498971    1.8611334    
     17400   1.74           0              1.8529528      1.8529528      0.064228352    1.8529528    
     17600   1.76           0              1.8878095      1.8878095      0.064029339    1.8878095    
     17800   1.78           0              1.8984104      1.8984104      0.063977719    1.8984104    
     18000   1.8            0              1.9148773      1.9148773      0.064224307    1.9148773    
     18200   1.82           0              1.9702176      1.9702176      0.064363966    1.9702176    
     18400   1.84           0              1.9394762      1.9394762      0.063165251    1.9394762    
     18600   1.86           0              1.9298822      1.9298822      0.063283086    1.9298822    
     18800   1.88           0              1.8915477      1.8915477      0.063273908    1.8915477    
     19000   1.9            0              1.8984849      1.8984849      0.063645051    1.8984849    
     19200   1.92           0              1.946034       1.946034       0.065022289    1.946034     
     19400   1.94           0              1.9646391      1.9646391      0.065651485    1.9646391    
     19600   1.96           0              1.9544994      1.9544994      0.065147948    1.9544994    
     19800   1.98           0              1.937842       1.937842       0.063300074    1.937842     
     20000   2              0              1.9363769      1.9363769      0.063773061    1.9363769    
     20200   2.02           0              1.9400894      1.9400894      0.062447322    1.9400894    
     20396   2.0396         0              1.9088838      1.9088838      0.062658097    1.9088838    
Loop time of 78.9937 on 1 procs for 20000 steps with 2048 atoms

Performance: 2.188 ns/day, 10.971 hours/ns, 253.185 timesteps/s, 518.522 katom-step/s
100.0% CPU use with 1 MPI tasks x 1 OpenMP threads

MPI task timing breakdown:
Section |  min time  |  avg time  |  max time  |%varavg| %total
---------------------------------------------------------------
Pair    | 20.275     | 20.275     | 20.275     |   0.0 | 25.67
Neigh   | 0          | 0          | 0          |   0.0 |  0.00
Comm    | 0.6962     | 0.6962     | 0.6962     |   0.0 |  0.88
Output  | 0.11705    | 0.11705    | 0.11705    |   0.0 |  0.15
Modify  | 57.815     | 57.815     | 57.815     |   0.0 | 73.19
Other   |            | 0.09008    |            |       |  0.11

Nlocal:           2048 ave        2048 max        2048 min
Histogram: 1 0 0 0 0 0 0 0 0 0
Nghost:           1732 ave        1732 max        1732 min
Histogram: 1 0 0 0 0 0 0 0 0 0
Neighs:              0 ave           0 max           0 min
Histogram: 1 0 0 0 0 0 0 0 0 0
FullNghs:        24576 ave       24576 max       24576 min
Histogram: 1 0 0 0 0 0 0 0 0 0

Total # of neighbors = 24576
Ave neighs/atom = 12
Neighbor list builds = 0
Dangerous builds = 0
DYNAMICS_T10_DONE
Total wall time: 0:01:19
