LAMMPS (10 Dec 2025 - Development - patch_10Dec2025-120-ga51f9ba0e7)
OMP_NUM_THREADS environment is not set. Defaulting to 1 thread.
  using 1 OpenMP thread(s) per MPI task
Reading restart file ...
  restart file = 10 Dec 2025, LAMMPS = 10 Dec 2025
  restoring atom style spin from restart
  orthogonal box = (0 0 -1.3575) to (407.25 235.1259 1.3575)
  1 by 1 by 1 MPI processor grid
  restoring pair style hybrid/overlay from restart
  15000 atoms
  read_restart CPU = 0.004 seconds

CITE-CITE-CITE-CITE-CITE-CITE-CITE-CITE-CITE-CITE-CITE-CITE-CITE

Your simulation uses code contributions which should be cited:
- fix nve/spin command: https://doi.org/10.1016/j.jcp.2018.06.042
The log file lists these citations in BibTeX format.

CITE-CITE-CITE-CITE-CITE-CITE-CITE-CITE-CITE-CITE-CITE-CITE-CITE

Generated 0 of 0 mixed pair_coeff terms from geometric mixing rule
Neighbor list info ...
  update: every = 10 steps, delay = 20 steps, check = yes
  max neighbors/atom: 2000, page size: 100000
  master list distance cutoff = 3.558
  ghost atom cutoff = 3.558
  binsize = 1.779, bins = 229 133 2
  3 neighbor lists, perpetual/occasional/extra = 3 0 0
  (1) pair spin/exchange, perpetual
      attributes: full, newton on
      pair build: full/bin/atomonly
      stencil: full/bin/3d
      bin: standard
  (2) pair spin/dmi, perpetual, copy from (1)
      attributes: full, newton on
      pair build: copy
      stencil: none
      bin: none
  (3) pair spin/magelec, perpetual, copy from (1)
      attributes: full, newton on
      pair build: copy
      stencil: none
      bin: none
WARNING: Dump 1 includes no atom IDs and is not sorted by ID. This may complicate post-processing tasks or visualization (src/dump.cpp:220)
Setting up Verlet run ...
  Unit style    : metal
  Current step  : 2522
  Time step     : 0.0001
Per MPI rank memory allocation (min/avg/max) = 6.591 | 6.591 | 6.591 Mbytes
   Step          Time           Temp          PotEng         TotEng      c_out_mag[4]   c_out_mag[5] 
      2522   0.2522         0             -1.0275171     -1.0275171      0.030922721   -1.0275171    
      2600   0.26           0              6.5122032      6.5122032      0.031169354    6.5122032    
      2800   0.28           0              23.446777      23.446777      0.027252835    23.446777    
      3000   0.3            0              37.749624      37.749624      0.024742559    37.749624    
      3200   0.32           0              50.136126      50.136126      0.022099392    50.136126    
      3400   0.34           0              60.648816      60.648816      0.020586295    60.648816    
      3600   0.36           0              70.238668      70.238668      0.019769878    70.238668    
      3800   0.38           0              77.917974      77.917974      0.019076694    77.917974    
      4000   0.4            0              85.403795      85.403795      0.019816397    85.403795    
      4200   0.42           0              92.113448      92.113448      0.020217253    92.113448    
      4400   0.44           0              98.075323      98.075323      0.0222029      98.075323    
      4600   0.46           0              103.21042      103.21042      0.024329255    103.21042    
      4800   0.48           0              107.70895      107.70895      0.020694616    107.70895    
      5000   0.5            0              112.48024      112.48024      0.015937655    112.48024    
      5200   0.52           0              115.86399      115.86399      0.016242708    115.86399    
      5400   0.54           0              119.13629      119.13629      0.014546669    119.13629    
      5600   0.56           0              122.05458      122.05458      0.012181762    122.05458    
      5800   0.58           0              124.73199      124.73199      0.011304116    124.73199    
      6000   0.6            0              127.26433      127.26433      0.010270327    127.26433    
      6200   0.62           0              129.70877      129.70877      0.0082205626   129.70877    
      6400   0.64           0              132.16589      132.16589      0.0063979511   132.16589    
      6600   0.66           0              134.25886      134.25886      0.0058813732   134.25886    
      6800   0.68           0              136.17384      136.17384      0.0052577128   136.17384    
      7000   0.7            0              137.54494      137.54494      0.0077688036   137.54494    
      7200   0.72           0              138.96356      138.96356      0.0069490042   138.96356    
      7400   0.74           0              140.59709      140.59709      0.0070547987   140.59709    
      7600   0.76           0              141.82094      141.82094      0.0043572355   141.82094    
      7800   0.78           0              143.2083       143.2083       0.0055640562   143.2083     
      8000   0.8            0              144.42841      144.42841      0.0061374863   144.42841    
      8200   0.82           0              145.24286      145.24286      0.0084851359   145.24286    
      8400   0.84           0              146.28238      146.28238      0.011139616    146.28238    
      8600   0.86           0              147.00434      147.00434      0.010483849    147.00434    
      8800   0.88           0              147.07734      147.07734      0.0096670711   147.07734    
      9000   0.9            0              147.83561      147.83561      0.010405107    147.83561    
      9200   0.92           0              148.33059      148.33059      0.0098340372   148.33059    
      9400   0.94           0              148.49058      148.49058      0.010787278    148.49058    
      9600   0.96           0              148.96215      148.96215      0.0079915305   148.96215    
      9800   0.98           0              149.43641      149.43641      0.0079530743   149.43641    
     10000   1              0              149.99337      149.99337      0.010212921    149.99337    
     10200   1.02           0              150.87376      150.87376      0.012092598    150.87376    
     10400   1.04           0              151.39121      151.39121      0.0095154763   151.39121    
     10600   1.06           0              151.83174      151.83174      0.01129223     151.83174    
     10800   1.08           0              151.79349      151.79349      0.0095266852   151.79349    
     11000   1.1            0              151.75611      151.75611      0.01084819     151.75611    
     11200   1.12           0              152.07262      152.07262      0.010438618    152.07262    
     11400   1.14           0              152.80785      152.80785      0.0085737651   152.80785    
     11600   1.16           0              152.76053      152.76053      0.0084135099   152.76053    
     11800   1.18           0              153.53647      153.53647      0.0096841271   153.53647    
     12000   1.2            0              153.64141      153.64141      0.011043095    153.64141    
     12200   1.22           0              154.05019      154.05019      0.011203122    154.05019    
     12400   1.24           0              154.28537      154.28537      0.008962736    154.28537    
     12600   1.26           0              154.3295       154.3295       0.0091179035   154.3295     
     12800   1.28           0              154.3962       154.3962       0.0088570052   154.3962     
     13000   1.3            0              155.08852      155.08852      0.010017212    155.08852    
     13200   1.32           0              155.14827      155.14827      0.0082830111   155.14827    
     13400   1.34           0              154.92864      154.92864      0.0083215888   154.92864    
     13600   1.36           0              154.94926      154.94926      0.0072699036   154.94926    
     13800   1.38           0              155.2068       155.2068       0.0077192124   155.2068     
     14000   1.4            0              155.23192      155.23192      0.010637077    155.23192    
     14200   1.42           0              155.07149      155.07149      0.0088548631   155.07149    
     14400   1.44           0              155.1105       155.1105       0.007197723    155.1105     
     14600   1.46           0              155.55761      155.55761      0.0069566299   155.55761    
     14800   1.48           0              155.70334      155.70334      0.0092800388   155.70334    
     15000   1.5            0              155.51671      155.51671      0.0090315349   155.51671    
     15200   1.52           0              155.60687      155.60687      0.010134351    155.60687    
     15400   1.54           0              155.60752      155.60752      0.0074801006   155.60752    
     15600   1.56           0              155.49895      155.49895      0.0094894321   155.49895    
     15800   1.58           0              155.79172      155.79172      0.0075472304   155.79172    
     16000   1.6            0              155.75749      155.75749      0.0091386242   155.75749    
     16200   1.62           0              155.60891      155.60891      0.0067439969   155.60891    
     16400   1.64           0              155.57536      155.57536      0.0057238226   155.57536    
     16600   1.66           0              155.30372      155.30372      0.0080505116   155.30372    
     16800   1.68           0              155.42357      155.42357      0.0070923547   155.42357    
     17000   1.7            0              155.36991      155.36991      0.0077075118   155.36991    
     17200   1.72           0              155.59098      155.59098      0.0070414653   155.59098    
     17400   1.74           0              155.68892      155.68892      0.0047914248   155.68892    
     17600   1.76           0              155.89736      155.89736      0.0060286144   155.89736    
     17800   1.78           0              155.87435      155.87435      0.0050951582   155.87435    
     18000   1.8            0              155.88689      155.88689      0.0038202836   155.88689    
     18200   1.82           0              155.97833      155.97833      0.0040467675   155.97833    
     18400   1.84           0              155.83026      155.83026      0.0036042902   155.83026    
     18600   1.86           0              155.80995      155.80995      0.0063674533   155.80995    
     18800   1.88           0              155.87729      155.87729      0.009233543    155.87729    
     19000   1.9            0              155.87199      155.87199      0.010230172    155.87199    
     19200   1.92           0              156.27244      156.27244      0.0068367705   156.27244    
     19400   1.94           0              156.10927      156.10927      0.007561479    156.10927    
     19600   1.96           0              156.48935      156.48935      0.0070499417   156.48935    
     19800   1.98           0              156.35754      156.35754      0.0099876104   156.35754    
     20000   2              0              156.04583      156.04583      0.012152145    156.04583    
     20200   2.02           0              156.16188      156.16188      0.012702156    156.16188    
     20400   2.04           0              156.15813      156.15813      0.013073176    156.15813    
     20600   2.06           0              155.88213      155.88213      0.016614525    155.88213    
     20800   2.08           0              156.15222      156.15222      0.017988965    156.15222    
     21000   2.1            0              156.23584      156.23584      0.016327395    156.23584    
     21200   2.12           0              156.5812       156.5812       0.014074468    156.5812     
     21400   2.14           0              156.15503      156.15503      0.014375815    156.15503    
     21600   2.16           0              156.02089      156.02089      0.016083854    156.02089    
     21800   2.18           0              155.90504      155.90504      0.01635901     155.90504    
     22000   2.2            0              156.1035       156.1035       0.015043826    156.1035     
     22200   2.22           0              155.87804      155.87804      0.015156387    155.87804    
     22400   2.24           0              156.08104      156.08104      0.01208324     156.08104    
     22522   2.2522         0              156.18973      156.18973      0.012193471    156.18973    
Loop time of 534.92 on 1 procs for 20000 steps with 15000 atoms

Performance: 0.323 ns/day, 74.294 hours/ns, 37.389 timesteps/s, 560.831 katom-step/s
99.9% CPU use with 1 MPI tasks x 1 OpenMP threads

MPI task timing breakdown:
Section |  min time  |  avg time  |  max time  |%varavg| %total
---------------------------------------------------------------
Pair    | 133.51     | 133.51     | 133.51     |   0.0 | 24.96
Neigh   | 0          | 0          | 0          |   0.0 |  0.00
Comm    | 1.3695     | 1.3695     | 1.3695     |   0.0 |  0.26
Output  | 0.88177    | 0.88177    | 0.88177    |   0.0 |  0.16
Modify  | 395.04     | 395.04     | 395.04     |   0.0 | 73.85
Other   |            | 4.116      |            |       |  0.77

Nlocal:          15000 ave       15000 max       15000 min
Histogram: 1 0 0 0 0 0 0 0 0 0
Nghost:            707 ave         707 max         707 min
Histogram: 1 0 0 0 0 0 0 0 0 0
Neighs:              0 ave           0 max           0 min
Histogram: 1 0 0 0 0 0 0 0 0 0
FullNghs:        90000 ave       90000 max       90000 min
Histogram: 1 0 0 0 0 0 0 0 0 0

Total # of neighbors = 90000
Ave neighs/atom = 6
Neighbor list builds = 0
Dangerous builds = 0
DYNAMICS_T226_DONE
Total wall time: 0:08:54
