LAMMPS (10 Dec 2025 - Development - patch_10Dec2025-120-ga51f9ba0e7)
OMP_NUM_THREADS environment is not set. Defaulting to 1 thread.
  using 1 OpenMP thread(s) per MPI task
Reading restart file ...
  restart file = 10 Dec 2025, LAMMPS = 10 Dec 2025
  restoring atom style spin from restart
  orthogonal box = (0 0 -1.3575) to (407.25 235.1259 1.3575)
  1 by 1 by 1 MPI processor grid
  restoring pair style hybrid/overlay from restart
  15000 atoms
  read_restart CPU = 0.003 seconds

CITE-CITE-CITE-CITE-CITE-CITE-CITE-CITE-CITE-CITE-CITE-CITE-CITE

Your simulation uses code contributions which should be cited:
- fix nve/spin command: https://doi.org/10.1016/j.jcp.2018.06.042
The log file lists these citations in BibTeX format.

CITE-CITE-CITE-CITE-CITE-CITE-CITE-CITE-CITE-CITE-CITE-CITE-CITE

Generated 0 of 0 mixed pair_coeff terms from geometric mixing rule
Neighbor list info ...
  update: every = 10 steps, delay = 20 steps, check = yes
  max neighbors/atom: 2000, page size: 100000
  master list distance cutoff = 3.558
  ghost atom cutoff = 3.558
  binsize = 1.779, bins = 229 133 2
  3 neighbor lists, perpetual/occasional/extra = 3 0 0
  (1) pair spin/exchange, perpetual
      attributes: full, newton on
      pair build: full/bin/atomonly
      stencil: full/bin/3d
      bin: standard
  (2) pair spin/dmi, perpetual, copy from (1)
      attributes: full, newton on
      pair build: copy
      stencil: none
      bin: none
  (3) pair spin/magelec, perpetual, copy from (1)
      attributes: full, newton on
      pair build: copy
      stencil: none
      bin: none
WARNING: Dump 1 includes no atom IDs and is not sorted by ID. This may complicate post-processing tasks or visualization (src/dump.cpp:220)
Setting up Verlet run ...
  Unit style    : metal
  Current step  : 2522
  Time step     : 0.0001
Per MPI rank memory allocation (min/avg/max) = 6.591 | 6.591 | 6.591 Mbytes
   Step          Time           Temp          PotEng         TotEng      c_out_mag[4]   c_out_mag[5] 
      2522   0.2522         0             -1.0275171     -1.0275171      0.030922721   -1.0275171    
      2600   0.26           0              6.7357541      6.7357541      0.030410237    6.7357541    
      2800   0.28           0              24.352545      24.352545      0.028337738    24.352545    
      3000   0.3            0              39.018456      39.018456      0.02768795     39.018456    
      3200   0.32           0              51.337214      51.337214      0.025394698    51.337214    
      3400   0.34           0              61.937949      61.937949      0.02459316     61.937949    
      3600   0.36           0              71.228742      71.228742      0.024153545    71.228742    
      3800   0.38           0              79.634289      79.634289      0.024859494    79.634289    
      4000   0.4            0              86.979177      86.979177      0.024465769    86.979177    
      4200   0.42           0              94.599921      94.599921      0.024811651    94.599921    
      4400   0.44           0              99.71661       99.71661       0.023386408    99.71661     
      4600   0.46           0              104.89619      104.89619      0.019626349    104.89619    
      4800   0.48           0              109.97014      109.97014      0.020196657    109.97014    
      5000   0.5            0              114.15095      114.15095      0.018567337    114.15095    
      5200   0.52           0              117.99314      117.99314      0.019006446    117.99314    
      5400   0.54           0              121.4182       121.4182       0.01767858     121.4182     
      5600   0.56           0              124.89439      124.89439      0.018578638    124.89439    
      5800   0.58           0              127.55197      127.55197      0.016688563    127.55197    
      6000   0.6            0              129.51714      129.51714      0.015762777    129.51714    
      6200   0.62           0              131.57849      131.57849      0.015360243    131.57849    
      6400   0.64           0              133.73799      133.73799      0.014469779    133.73799    
      6600   0.66           0              135.8594       135.8594       0.015379036    135.8594     
      6800   0.68           0              137.55375      137.55375      0.016622414    137.55375    
      7000   0.7            0              139.49602      139.49602      0.014252922    139.49602    
      7200   0.72           0              141.0929       141.0929       0.015425332    141.0929     
      7400   0.74           0              142.46985      142.46985      0.012995089    142.46985    
      7600   0.76           0              144.13961      144.13961      0.011332758    144.13961    
      7800   0.78           0              144.87052      144.87052      0.011387591    144.87052    
      8000   0.8            0              145.8199       145.8199       0.010858518    145.8199     
      8200   0.82           0              146.60511      146.60511      0.0085523481   146.60511    
      8400   0.84           0              147.45057      147.45057      0.0075815727   147.45057    
      8600   0.86           0              148.12564      148.12564      0.0072157702   148.12564    
      8800   0.88           0              148.65524      148.65524      0.01021936     148.65524    
      9000   0.9            0              148.96159      148.96159      0.010288408    148.96159    
      9200   0.92           0              149.5393       149.5393       0.011459617    149.5393     
      9400   0.94           0              149.77094      149.77094      0.010643597    149.77094    
      9600   0.96           0              150.68555      150.68555      0.0099862235   150.68555    
      9800   0.98           0              150.9621       150.9621       0.01103795     150.9621     
     10000   1              0              151.70615      151.70615      0.012347681    151.70615    
     10200   1.02           0              152.16468      152.16468      0.011414667    152.16468    
     10400   1.04           0              152.57251      152.57251      0.011773836    152.57251    
     10600   1.06           0              153.11453      153.11453      0.013019472    153.11453    
     10800   1.08           0              153.68004      153.68004      0.013719961    153.68004    
     11000   1.1            0              154.15584      154.15584      0.011439516    154.15584    
     11200   1.12           0              154.36291      154.36291      0.0094595693   154.36291    
     11400   1.14           0              154.27259      154.27259      0.00958641     154.27259    
     11600   1.16           0              154.34229      154.34229      0.010092254    154.34229    
     11800   1.18           0              154.32565      154.32565      0.0083995688   154.32565    
     12000   1.2            0              154.61868      154.61868      0.0068086132   154.61868    
     12200   1.22           0              154.73164      154.73164      0.0071378507   154.73164    
     12400   1.24           0              155.14505      155.14505      0.0059894195   155.14505    
     12600   1.26           0              156.0093       156.0093       0.0046423895   156.0093     
     12800   1.28           0              156.30024      156.30024      0.0031412617   156.30024    
     13000   1.3            0              156.12395      156.12395      0.0056755936   156.12395    
     13200   1.32           0              156.03718      156.03718      0.0039219524   156.03718    
     13400   1.34           0              156.1837       156.1837       0.003017166    156.1837     
     13600   1.36           0              156.17921      156.17921      0.0027130206   156.17921    
     13800   1.38           0              156.51698      156.51698      0.0033040537   156.51698    
     14000   1.4            0              156.73826      156.73826      0.001348301    156.73826    
     14200   1.42           0              156.80388      156.80388      0.0033066354   156.80388    
     14400   1.44           0              157.10875      157.10875      0.0034590141   157.10875    
     14600   1.46           0              156.93659      156.93659      0.0078050518   156.93659    
     14800   1.48           0              157.05612      157.05612      0.0093542436   157.05612    
     15000   1.5            0              157.02245      157.02245      0.0108846      157.02245    
     15200   1.52           0              157.2956       157.2956       0.013080179    157.2956     
     15400   1.54           0              157.75223      157.75223      0.014052732    157.75223    
     15600   1.56           0              157.8848       157.8848       0.017474143    157.8848     
     15800   1.58           0              157.95572      157.95572      0.016579713    157.95572    
     16000   1.6            0              157.37385      157.37385      0.01554409     157.37385    
     16200   1.62           0              157.36507      157.36507      0.017415616    157.36507    
     16400   1.64           0              157.16025      157.16025      0.019113925    157.16025    
     16600   1.66           0              156.92667      156.92667      0.017828128    156.92667    
     16800   1.68           0              156.71004      156.71004      0.014873441    156.71004    
     17000   1.7            0              156.51809      156.51809      0.015963739    156.51809    
     17200   1.72           0              156.83273      156.83273      0.016071781    156.83273    
     17400   1.74           0              156.86894      156.86894      0.015309387    156.86894    
     17600   1.76           0              156.97093      156.97093      0.01665147     156.97093    
     17800   1.78           0              157.00601      157.00601      0.018275133    157.00601    
     18000   1.8            0              157.1459       157.1459       0.015185716    157.1459     
     18200   1.82           0              157.34077      157.34077      0.011932357    157.34077    
     18400   1.84           0              157.43494      157.43494      0.010283254    157.43494    
     18600   1.86           0              157.74222      157.74222      0.010661752    157.74222    
     18800   1.88           0              157.22278      157.22278      0.011481019    157.22278    
     19000   1.9            0              157.15871      157.15871      0.013164916    157.15871    
     19200   1.92           0              156.79447      156.79447      0.015461558    156.79447    
     19400   1.94           0              156.90965      156.90965      0.017886929    156.90965    
     19600   1.96           0              156.31638      156.31638      0.016309727    156.31638    
     19800   1.98           0              156.0519       156.0519       0.016938279    156.0519     
     20000   2              0              156.28444      156.28444      0.013176515    156.28444    
     20200   2.02           0              156.48225      156.48225      0.01064914     156.48225    
     20400   2.04           0              156.57805      156.57805      0.010879835    156.57805    
     20600   2.06           0              156.91839      156.91839      0.010016353    156.91839    
     20800   2.08           0              156.77085      156.77085      0.011004786    156.77085    
     21000   2.1            0              156.83272      156.83272      0.0089051664   156.83272    
     21200   2.12           0              157.0054       157.0054       0.0066256024   157.0054     
     21400   2.14           0              157.04395      157.04395      0.004161823    157.04395    
     21600   2.16           0              156.97623      156.97623      0.0027009059   156.97623    
     21800   2.18           0              157.23485      157.23485      0.0036683379   157.23485    
     22000   2.2            0              157.05009      157.05009      0.0034708456   157.05009    
     22200   2.22           0              156.99554      156.99554      0.0032699758   156.99554    
     22400   2.24           0              156.81607      156.81607      0.0057574194   156.81607    
     22522   2.2522         0              156.65879      156.65879      0.005024753    156.65879    
Loop time of 528.427 on 1 procs for 20000 steps with 15000 atoms

Performance: 0.327 ns/day, 73.393 hours/ns, 37.848 timesteps/s, 567.723 katom-step/s
99.9% CPU use with 1 MPI tasks x 1 OpenMP threads

MPI task timing breakdown:
Section |  min time  |  avg time  |  max time  |%varavg| %total
---------------------------------------------------------------
Pair    | 136.43     | 136.43     | 136.43     |   0.0 | 25.82
Neigh   | 0          | 0          | 0          |   0.0 |  0.00
Comm    | 1.3612     | 1.3612     | 1.3612     |   0.0 |  0.26
Output  | 0.88506    | 0.88506    | 0.88506    |   0.0 |  0.17
Modify  | 385.79     | 385.79     | 385.79     |   0.0 | 73.01
Other   |            | 3.968      |            |       |  0.75

Nlocal:          15000 ave       15000 max       15000 min
Histogram: 1 0 0 0 0 0 0 0 0 0
Nghost:            707 ave         707 max         707 min
Histogram: 1 0 0 0 0 0 0 0 0 0
Neighs:              0 ave           0 max           0 min
Histogram: 1 0 0 0 0 0 0 0 0 0
FullNghs:        90000 ave       90000 max       90000 min
Histogram: 1 0 0 0 0 0 0 0 0 0

Total # of neighbors = 90000
Ave neighs/atom = 6
Neighbor list builds = 0
Dangerous builds = 0
DYNAMICS_T235_DONE
Total wall time: 0:08:48
