LAMMPS (10 Dec 2025 - Development - patch_10Dec2025-120-ga51f9ba0e7)
OMP_NUM_THREADS environment is not set. Defaulting to 1 thread.
  using 1 OpenMP thread(s) per MPI task
Reading restart file ...
  restart file = 10 Dec 2025, LAMMPS = 10 Dec 2025
  restoring atom style spin from restart
  orthogonal box = (0 0 -1.3575) to (407.25 235.1259 1.3575)
  1 by 1 by 1 MPI processor grid
  restoring pair style hybrid/overlay from restart
  15000 atoms
  read_restart CPU = 0.004 seconds

CITE-CITE-CITE-CITE-CITE-CITE-CITE-CITE-CITE-CITE-CITE-CITE-CITE

Your simulation uses code contributions which should be cited:
- fix nve/spin command: https://doi.org/10.1016/j.jcp.2018.06.042
The log file lists these citations in BibTeX format.

CITE-CITE-CITE-CITE-CITE-CITE-CITE-CITE-CITE-CITE-CITE-CITE-CITE

Generated 0 of 0 mixed pair_coeff terms from geometric mixing rule
Neighbor list info ...
  update: every = 10 steps, delay = 20 steps, check = yes
  max neighbors/atom: 2000, page size: 100000
  master list distance cutoff = 3.558
  ghost atom cutoff = 3.558
  binsize = 1.779, bins = 229 133 2
  3 neighbor lists, perpetual/occasional/extra = 3 0 0
  (1) pair spin/exchange, perpetual
      attributes: full, newton on
      pair build: full/bin/atomonly
      stencil: full/bin/3d
      bin: standard
  (2) pair spin/dmi, perpetual, copy from (1)
      attributes: full, newton on
      pair build: copy
      stencil: none
      bin: none
  (3) pair spin/magelec, perpetual, copy from (1)
      attributes: full, newton on
      pair build: copy
      stencil: none
      bin: none
WARNING: Dump 1 includes no atom IDs and is not sorted by ID. This may complicate post-processing tasks or visualization (src/dump.cpp:220)
Setting up Verlet run ...
  Unit style    : metal
  Current step  : 2522
  Time step     : 0.0001
Per MPI rank memory allocation (min/avg/max) = 6.591 | 6.591 | 6.591 Mbytes
   Step          Time           Temp          PotEng         TotEng      c_out_mag[4]   c_out_mag[5] 
      2522   0.2522         0             -1.0275171     -1.0275171      0.030922721   -1.0275171    
      2600   0.26           0              2.3851351      2.3851351      0.030598226    2.3851351    
      2800   0.28           0              10.409284      10.409284      0.031367057    10.409284    
      3000   0.3            0              17.637463      17.637463      0.031731798    17.637463    
      3200   0.32           0              23.864111      23.864111      0.030665707    23.864111    
      3400   0.34           0              29.37231       29.37231       0.031287511    29.37231     
      3600   0.36           0              34.321087      34.321087      0.031132573    34.321087    
      3800   0.38           0              38.761918      38.761918      0.028061563    38.761918    
      4000   0.4            0              43.18236       43.18236       0.026944919    43.18236     
      4200   0.42           0              47.464088      47.464088      0.027637772    47.464088    
      4400   0.44           0              51.045208      51.045208      0.025569843    51.045208    
      4600   0.46           0              54.125255      54.125255      0.024795605    54.125255    
      4800   0.48           0              57.304716      57.304716      0.025038849    57.304716    
      5000   0.5            0              60.307644      60.307644      0.023181013    60.307644    
      5200   0.52           0              62.980829      62.980829      0.023072555    62.980829    
      5400   0.54           0              65.132186      65.132186      0.022105418    65.132186    
      5600   0.56           0              67.332371      67.332371      0.021100864    67.332371    
      5800   0.58           0              69.46779       69.46779       0.021597852    69.46779     
      6000   0.6            0              71.042421      71.042421      0.022076413    71.042421    
      6200   0.62           0              73.091893      73.091893      0.021109114    73.091893    
      6400   0.64           0              75.596074      75.596074      0.021205598    75.596074    
      6600   0.66           0              77.563963      77.563963      0.02049038     77.563963    
      6800   0.68           0              79.602578      79.602578      0.019844556    79.602578    
      7000   0.7            0              81.53771       81.53771       0.019294535    81.53771     
      7200   0.72           0              82.606568      82.606568      0.018616108    82.606568    
      7400   0.74           0              84.146475      84.146475      0.020094438    84.146475    
      7600   0.76           0              85.58632       85.58632       0.020531179    85.58632     
      7800   0.78           0              86.835619      86.835619      0.020901528    86.835619    
      8000   0.8            0              88.438663      88.438663      0.019565964    88.438663    
      8200   0.82           0              89.608679      89.608679      0.018210649    89.608679    
      8400   0.84           0              90.38536       90.38536       0.018358342    90.38536     
      8600   0.86           0              91.311306      91.311306      0.020017766    91.311306    
      8800   0.88           0              92.27035       92.27035       0.020438976    92.27035     
      9000   0.9            0              93.327898      93.327898      0.018777928    93.327898    
      9200   0.92           0              94.458521      94.458521      0.018588572    94.458521    
      9400   0.94           0              95.488542      95.488542      0.018785219    95.488542    
      9600   0.96           0              96.594682      96.594682      0.017723352    96.594682    
      9800   0.98           0              97.647036      97.647036      0.015345312    97.647036    
     10000   1              0              98.641664      98.641664      0.016350202    98.641664    
     10200   1.02           0              99.726541      99.726541      0.016750643    99.726541    
     10400   1.04           0              100.78732      100.78732      0.018184517    100.78732    
     10600   1.06           0              102.02547      102.02547      0.017091721    102.02547    
     10800   1.08           0              102.27275      102.27275      0.015282709    102.27275    
     11000   1.1            0              103.25815      103.25815      0.014723967    103.25815    
     11200   1.12           0              104.0796       104.0796       0.01482595     104.0796     
     11400   1.14           0              104.81878      104.81878      0.013891068    104.81878    
     11600   1.16           0              105.84823      105.84823      0.014564205    105.84823    
     11800   1.18           0              106.64817      106.64817      0.012754927    106.64817    
     12000   1.2            0              107.22236      107.22236      0.014077333    107.22236    
     12200   1.22           0              108.19114      108.19114      0.012962593    108.19114    
     12400   1.24           0              108.60262      108.60262      0.010944877    108.60262    
     12600   1.26           0              109.23744      109.23744      0.010502457    109.23744    
     12800   1.28           0              109.45824      109.45824      0.0089354087   109.45824    
     13000   1.3            0              109.55525      109.55525      0.0088541698   109.55525    
     13200   1.32           0              110.09963      110.09963      0.0092345717   110.09963    
     13400   1.34           0              110.58084      110.58084      0.0058614746   110.58084    
     13600   1.36           0              111.01954      111.01954      0.0063084701   111.01954    
     13800   1.38           0              111.66473      111.66473      0.0068064157   111.66473    
     14000   1.4            0              112.03981      112.03981      0.0071777243   112.03981    
     14200   1.42           0              112.78053      112.78053      0.0058509463   112.78053    
     14400   1.44           0              113.07639      113.07639      0.0047536662   113.07639    
     14600   1.46           0              113.10435      113.10435      0.0060865432   113.10435    
     14800   1.48           0              113.31405      113.31405      0.0051601951   113.31405    
     15000   1.5            0              113.45194      113.45194      0.0056111517   113.45194    
     15200   1.52           0              113.75564      113.75564      0.0064162459   113.75564    
     15400   1.54           0              113.92567      113.92567      0.0088740011   113.92567    
     15600   1.56           0              114.54638      114.54638      0.010558001    114.54638    
     15800   1.58           0              115.21452      115.21452      0.011610992    115.21452    
     16000   1.6            0              115.76339      115.76339      0.010806533    115.76339    
     16200   1.62           0              116.31746      116.31746      0.010725785    116.31746    
     16400   1.64           0              116.99991      116.99991      0.012382276    116.99991    
     16600   1.66           0              117.70365      117.70365      0.013915256    117.70365    
     16800   1.68           0              117.97721      117.97721      0.012883354    117.97721    
     17000   1.7            0              118.31311      118.31311      0.012299493    118.31311    
     17200   1.72           0              118.46906      118.46906      0.012577569    118.46906    
     17400   1.74           0              118.68888      118.68888      0.01160938     118.68888    
     17600   1.76           0              119.16904      119.16904      0.012427568    119.16904    
     17800   1.78           0              119.42361      119.42361      0.011546307    119.42361    
     18000   1.8            0              119.88272      119.88272      0.012875774    119.88272    
     18200   1.82           0              119.95098      119.95098      0.013264652    119.95098    
     18400   1.84           0              120.28368      120.28368      0.014562193    120.28368    
     18600   1.86           0              120.26401      120.26401      0.015011713    120.26401    
     18800   1.88           0              120.73423      120.73423      0.015497644    120.73423    
     19000   1.9            0              120.85516      120.85516      0.014926887    120.85516    
     19200   1.92           0              121.27404      121.27404      0.015739554    121.27404    
     19400   1.94           0              121.82759      121.82759      0.016737788    121.82759    
     19600   1.96           0              122.10045      122.10045      0.016929575    122.10045    
     19800   1.98           0              122.33494      122.33494      0.016175432    122.33494    
     20000   2              0              122.64877      122.64877      0.01473488     122.64877    
     20200   2.02           0              122.82752      122.82752      0.016110797    122.82752    
     20400   2.04           0              123.11593      123.11593      0.016085251    123.11593    
     20600   2.06           0              123.25537      123.25537      0.016586648    123.25537    
     20800   2.08           0              123.45418      123.45418      0.015377322    123.45418    
     21000   2.1            0              123.25042      123.25042      0.015714059    123.25042    
     21200   2.12           0              123.73769      123.73769      0.014729099    123.73769    
     21400   2.14           0              123.67244      123.67244      0.014540781    123.67244    
     21600   2.16           0              123.84786      123.84786      0.01240962     123.84786    
     21800   2.18           0              124.0049       124.0049       0.01241877     124.0049     
     22000   2.2            0              124.03146      124.03146      0.013652891    124.03146    
     22200   2.22           0              124.00286      124.00286      0.010179387    124.00286    
     22400   2.24           0              124.30125      124.30125      0.0098478263   124.30125    
     22522   2.2522         0              124.41952      124.41952      0.0096097757   124.41952    
Loop time of 498.685 on 1 procs for 20000 steps with 15000 atoms

Performance: 0.347 ns/day, 69.262 hours/ns, 40.105 timesteps/s, 601.582 katom-step/s
100.0% CPU use with 1 MPI tasks x 1 OpenMP threads

MPI task timing breakdown:
Section |  min time  |  avg time  |  max time  |%varavg| %total
---------------------------------------------------------------
Pair    | 125.13     | 125.13     | 125.13     |   0.0 | 25.09
Neigh   | 0          | 0          | 0          |   0.0 |  0.00
Comm    | 0.3761     | 0.3761     | 0.3761     |   0.0 |  0.08
Output  | 0.78358    | 0.78358    | 0.78358    |   0.0 |  0.16
Modify  | 371.53     | 371.53     | 371.53     |   0.0 | 74.50
Other   |            | 0.8641     |            |       |  0.17

Nlocal:          15000 ave       15000 max       15000 min
Histogram: 1 0 0 0 0 0 0 0 0 0
Nghost:            707 ave         707 max         707 min
Histogram: 1 0 0 0 0 0 0 0 0 0
Neighs:              0 ave           0 max           0 min
Histogram: 1 0 0 0 0 0 0 0 0 0
FullNghs:        90000 ave       90000 max       90000 min
Histogram: 1 0 0 0 0 0 0 0 0 0

Total # of neighbors = 90000
Ave neighs/atom = 6
Neighbor list builds = 0
Dangerous builds = 0
DYNAMICS_T100_DONE
Total wall time: 0:08:18
