LAMMPS (10 Dec 2025 - Development - patch_10Dec2025-120-ga51f9ba0e7)
OMP_NUM_THREADS environment is not set. Defaulting to 1 thread.
  using 1 OpenMP thread(s) per MPI task
Reading restart file ...
  restart file = 10 Dec 2025, LAMMPS = 10 Dec 2025
  restoring atom style spin from restart
  orthogonal box = (0 0 -1.3575) to (407.25 235.1259 1.3575)
  1 by 1 by 1 MPI processor grid
  restoring pair style hybrid/overlay from restart
  15000 atoms
  read_restart CPU = 0.005 seconds

CITE-CITE-CITE-CITE-CITE-CITE-CITE-CITE-CITE-CITE-CITE-CITE-CITE

Your simulation uses code contributions which should be cited:
- fix nve/spin command: https://doi.org/10.1016/j.jcp.2018.06.042
The log file lists these citations in BibTeX format.

CITE-CITE-CITE-CITE-CITE-CITE-CITE-CITE-CITE-CITE-CITE-CITE-CITE

Generated 0 of 0 mixed pair_coeff terms from geometric mixing rule
Neighbor list info ...
  update: every = 10 steps, delay = 20 steps, check = yes
  max neighbors/atom: 2000, page size: 100000
  master list distance cutoff = 3.558
  ghost atom cutoff = 3.558
  binsize = 1.779, bins = 229 133 2
  3 neighbor lists, perpetual/occasional/extra = 3 0 0
  (1) pair spin/exchange, perpetual
      attributes: full, newton on
      pair build: full/bin/atomonly
      stencil: full/bin/3d
      bin: standard
  (2) pair spin/dmi, perpetual, copy from (1)
      attributes: full, newton on
      pair build: copy
      stencil: none
      bin: none
  (3) pair spin/magelec, perpetual, copy from (1)
      attributes: full, newton on
      pair build: copy
      stencil: none
      bin: none
WARNING: Dump 1 includes no atom IDs and is not sorted by ID. This may complicate post-processing tasks or visualization (src/dump.cpp:220)
Setting up Verlet run ...
  Unit style    : metal
  Current step  : 2522
  Time step     : 0.0001
Per MPI rank memory allocation (min/avg/max) = 6.591 | 6.591 | 6.591 Mbytes
   Step          Time           Temp          PotEng         TotEng      c_out_mag[4]   c_out_mag[5] 
      2522   0.2522         0             -1.0275171     -1.0275171      0.030922721   -1.0275171    
      2600   0.26           0              5.602337       5.602337       0.030508376    5.602337     
      2800   0.28           0              20.81628       20.81628       0.028718524    20.81628     
      3000   0.3            0              33.666425      33.666425      0.028183006    33.666425    
      3200   0.32           0              44.59578       44.59578       0.026242342    44.59578     
      3400   0.34           0              54.120194      54.120194      0.025514403    54.120194    
      3600   0.36           0              62.586414      62.586414      0.025216819    62.586414    
      3800   0.38           0              70.310974      70.310974      0.025885555    70.310974    
      4000   0.4            0              77.109076      77.109076      0.025655001    77.109076    
      4200   0.42           0              84.248171      84.248171      0.026065681    84.248171    
      4400   0.44           0              89.137741      89.137741      0.024573163    89.137741    
      4600   0.46           0              94.081953      94.081953      0.021309462    94.081953    
      4800   0.48           0              99.066876      99.066876      0.02209614     99.066876    
      5000   0.5            0              103.13822      103.13822      0.020226736    103.13822    
      5200   0.52           0              107.09071      107.09071      0.020970772    107.09071    
      5400   0.54           0              110.43237      110.43237      0.019866076    110.43237    
      5600   0.56           0              114.02093      114.02093      0.021045443    114.02093    
      5800   0.58           0              116.84199      116.84199      0.018898936    116.84199    
      6000   0.6            0              118.99336      118.99336      0.018007324    118.99336    
      6200   0.62           0              121.32803      121.32803      0.018705977    121.32803    
      6400   0.64           0              123.62302      123.62302      0.018867639    123.62302    
      6600   0.66           0              125.84795      125.84795      0.019062204    125.84795    
      6800   0.68           0              127.61147      127.61147      0.018827974    127.61147    
      7000   0.7            0              129.71672      129.71672      0.017578923    129.71672    
      7200   0.72           0              131.51939      131.51939      0.0183724      131.51939    
      7400   0.74           0              133.19732      133.19732      0.016645927    133.19732    
      7600   0.76           0              135.05288      135.05288      0.014636834    135.05288    
      7800   0.78           0              136.24349      136.24349      0.013406046    136.24349    
      8000   0.8            0              137.42778      137.42778      0.012619684    137.42778    
      8200   0.82           0              138.58316      138.58316      0.010731857    138.58316    
      8400   0.84           0              139.51282      139.51282      0.011018916    139.51282    
      8600   0.86           0              140.75093      140.75093      0.0094765496   140.75093    
      8800   0.88           0              141.39672      141.39672      0.0091897674   141.39672    
      9000   0.9            0              142.09413      142.09413      0.0091480283   142.09413    
      9200   0.92           0              142.82234      142.82234      0.0092084755   142.82234    
      9400   0.94           0              143.59805      143.59805      0.0071920378   143.59805    
      9600   0.96           0              144.18657      144.18657      0.0056595628   144.18657    
      9800   0.98           0              145.1425       145.1425       0.0048639998   145.1425     
     10000   1              0              145.64056      145.64056      0.0048528338   145.64056    
     10200   1.02           0              146.08111      146.08111      0.0040273553   146.08111    
     10400   1.04           0              146.58015      146.58015      0.0048769438   146.58015    
     10600   1.06           0              147.02441      147.02441      0.0044787968   147.02441    
     10800   1.08           0              147.54435      147.54435      0.0030059967   147.54435    
     11000   1.1            0              148.16485      148.16485      0.0024972981   148.16485    
     11200   1.12           0              148.71732      148.71732      0.00331203     148.71732    
     11400   1.14           0              149.22056      149.22056      0.0030178801   149.22056    
     11600   1.16           0              149.23554      149.23554      0.0040160125   149.23554    
     11800   1.18           0              149.40508      149.40508      0.0026477843   149.40508    
     12000   1.2            0              149.78773      149.78773      0.0028548044   149.78773    
     12200   1.22           0              150.03265      150.03265      0.0048232233   150.03265    
     12400   1.24           0              150.15306      150.15306      0.0019704169   150.15306    
     12600   1.26           0              150.4021       150.4021       0.0028349691   150.4021     
     12800   1.28           0              150.42748      150.42748      0.0044317887   150.42748    
     13000   1.3            0              150.44708      150.44708      0.0047263396   150.44708    
     13200   1.32           0              150.53777      150.53777      0.007247634    150.53777    
     13400   1.34           0              150.76695      150.76695      0.007988296    150.76695    
     13600   1.36           0              150.93763      150.93763      0.0078364114   150.93763    
     13800   1.38           0              151.14624      151.14624      0.0086558771   151.14624    
     14000   1.4            0              151.85864      151.85864      0.0063952811   151.85864    
     14200   1.42           0              151.97537      151.97537      0.0067654066   151.97537    
     14400   1.44           0              151.85632      151.85632      0.0060572351   151.85632    
     14600   1.46           0              152.22336      152.22336      0.0063346592   152.22336    
     14800   1.48           0              152.67837      152.67837      0.0061344585   152.67837    
     15000   1.5            0              152.64373      152.64373      0.0039131022   152.64373    
     15200   1.52           0              152.61339      152.61339      0.0045229635   152.61339    
     15400   1.54           0              152.97068      152.97068      0.0028573888   152.97068    
     15600   1.56           0              152.82964      152.82964      0.0035692035   152.82964    
     15800   1.58           0              152.2113       152.2113       0.0047702375   152.2113     
     16000   1.6            0              152.28728      152.28728      0.0090980049   152.28728    
     16200   1.62           0              152.03098      152.03098      0.0082999064   152.03098    
     16400   1.64           0              151.91601      151.91601      0.0075241527   151.91601    
     16600   1.66           0              152.0634       152.0634       0.0089481302   152.0634     
     16800   1.68           0              152.11042      152.11042      0.011700763    152.11042    
     17000   1.7            0              152.22264      152.22264      0.0089787086   152.22264    
     17200   1.72           0              152.11088      152.11088      0.0089779587   152.11088    
     17400   1.74           0              152.34951      152.34951      0.0057114132   152.34951    
     17600   1.76           0              152.63996      152.63996      0.0044500528   152.63996    
     17800   1.78           0              152.39263      152.39263      0.0052544549   152.39263    
     18000   1.8            0              153.0011       153.0011       0.0071799467   153.0011     
     18200   1.82           0              152.7444       152.7444       0.0059993438   152.7444     
     18400   1.84           0              152.9197       152.9197       0.0065005788   152.9197     
     18600   1.86           0              152.94339      152.94339      0.0078725411   152.94339    
     18800   1.88           0              153.05436      153.05436      0.0096017808   153.05436    
     19000   1.9            0              153.28435      153.28435      0.0053463453   153.28435    
     19200   1.92           0              153.31258      153.31258      0.0044584051   153.31258    
     19400   1.94           0              153.23208      153.23208      0.0027885989   153.23208    
     19600   1.96           0              153.04232      153.04232      0.0030644219   153.04232    
     19800   1.98           0              153.06252      153.06252      0.0048727642   153.06252    
     20000   2              0              153.17009      153.17009      0.0052283611   153.17009    
     20200   2.02           0              153.17025      153.17025      0.0036857436   153.17025    
     20400   2.04           0              153.09423      153.09423      0.0056560804   153.09423    
     20600   2.06           0              153.21036      153.21036      0.0037057015   153.21036    
     20800   2.08           0              153.10005      153.10005      0.0040495391   153.10005    
     21000   2.1            0              153.06755      153.06755      0.0068540789   153.06755    
     21200   2.12           0              153.49215      153.49215      0.0033952489   153.49215    
     21400   2.14           0              153.18631      153.18631      0.003543465    153.18631    
     21600   2.16           0              152.98838      152.98838      0.0040944169   152.98838    
     21800   2.18           0              153.1073       153.1073       0.0054547539   153.1073     
     22000   2.2            0              153.15079      153.15079      0.0046847999   153.15079    
     22200   2.22           0              153.49973      153.49973      0.0066784744   153.49973    
     22400   2.24           0              153.49475      153.49475      0.006891427    153.49475    
     22522   2.2522         0              153.57942      153.57942      0.0066374587   153.57942    
Loop time of 574.492 on 1 procs for 20000 steps with 15000 atoms

Performance: 0.301 ns/day, 79.791 hours/ns, 34.813 timesteps/s, 522.201 katom-step/s
100.0% CPU use with 1 MPI tasks x 1 OpenMP threads

MPI task timing breakdown:
Section |  min time  |  avg time  |  max time  |%varavg| %total
---------------------------------------------------------------
Pair    | 145.53     | 145.53     | 145.53     |   0.0 | 25.33
Neigh   | 0          | 0          | 0          |   0.0 |  0.00
Comm    | 0.5046     | 0.5046     | 0.5046     |   0.0 |  0.09
Output  | 0.90942    | 0.90942    | 0.90942    |   0.0 |  0.16
Modify  | 426.18     | 426.18     | 426.18     |   0.0 | 74.18
Other   |            | 1.366      |            |       |  0.24

Nlocal:          15000 ave       15000 max       15000 min
Histogram: 1 0 0 0 0 0 0 0 0 0
Nghost:            707 ave         707 max         707 min
Histogram: 1 0 0 0 0 0 0 0 0 0
Neighs:              0 ave           0 max           0 min
Histogram: 1 0 0 0 0 0 0 0 0 0
FullNghs:        90000 ave       90000 max       90000 min
Histogram: 1 0 0 0 0 0 0 0 0 0

Total # of neighbors = 90000
Ave neighs/atom = 6
Neighbor list builds = 0
Dangerous builds = 0
DYNAMICS_T200_DONE
Total wall time: 0:09:34
