LAMMPS (10 Dec 2025 - Development - patch_10Dec2025-120-ga51f9ba0e7)
OMP_NUM_THREADS environment is not set. Defaulting to 1 thread.
  using 1 OpenMP thread(s) per MPI task
Reading restart file ...
  restart file = 10 Dec 2025, LAMMPS = 10 Dec 2025
  restoring atom style spin from restart
  orthogonal box = (0 0 -1.3575) to (407.25 235.1259 1.3575)
  1 by 1 by 1 MPI processor grid
  restoring pair style hybrid/overlay from restart
  15000 atoms
  read_restart CPU = 0.003 seconds

CITE-CITE-CITE-CITE-CITE-CITE-CITE-CITE-CITE-CITE-CITE-CITE-CITE

Your simulation uses code contributions which should be cited:
- fix nve/spin command: https://doi.org/10.1016/j.jcp.2018.06.042
The log file lists these citations in BibTeX format.

CITE-CITE-CITE-CITE-CITE-CITE-CITE-CITE-CITE-CITE-CITE-CITE-CITE

Generated 0 of 0 mixed pair_coeff terms from geometric mixing rule
Neighbor list info ...
  update: every = 10 steps, delay = 20 steps, check = yes
  max neighbors/atom: 2000, page size: 100000
  master list distance cutoff = 3.558
  ghost atom cutoff = 3.558
  binsize = 1.779, bins = 229 133 2
  3 neighbor lists, perpetual/occasional/extra = 3 0 0
  (1) pair spin/exchange, perpetual
      attributes: full, newton on
      pair build: full/bin/atomonly
      stencil: full/bin/3d
      bin: standard
  (2) pair spin/dmi, perpetual, copy from (1)
      attributes: full, newton on
      pair build: copy
      stencil: none
      bin: none
  (3) pair spin/magelec, perpetual, copy from (1)
      attributes: full, newton on
      pair build: copy
      stencil: none
      bin: none
WARNING: Dump 1 includes no atom IDs and is not sorted by ID. This may complicate post-processing tasks or visualization (src/dump.cpp:220)
Setting up Verlet run ...
  Unit style    : metal
  Current step  : 2522
  Time step     : 0.0001
Per MPI rank memory allocation (min/avg/max) = 6.591 | 6.591 | 6.591 Mbytes
   Step          Time           Temp          PotEng         TotEng      c_out_mag[4]   c_out_mag[5] 
      2522   0.2522         0             -1.0275171     -1.0275171      0.030922721   -1.0275171    
      2600   0.26           0              6.1910199      6.1910199      0.030280844    6.1910199    
      2800   0.28           0              22.548872      22.548872      0.0312588      22.548872    
      3000   0.3            0              36.618827      36.618827      0.031084143    36.618827    
      3200   0.32           0              48.158689      48.158689      0.029119468    48.158689    
      3400   0.34           0              57.984388      57.984388      0.029997518    57.984388    
      3600   0.36           0              66.676992      66.676992      0.029836255    66.676992    
      3800   0.38           0              74.390372      74.390372      0.025458794    74.390372    
      4000   0.4            0              81.783776      81.783776      0.024171983    81.783776    
      4200   0.42           0              88.312488      88.312488      0.024801136    88.312488    
      4400   0.44           0              93.940134      93.940134      0.021986589    93.940134    
      4600   0.46           0              98.799793      98.799793      0.020047012    98.799793    
      4800   0.48           0              103.6443       103.6443       0.020311404    103.6443     
      5000   0.5            0              107.74063      107.74063      0.016222536    107.74063    
      5200   0.52           0              111.42188      111.42188      0.01524092     111.42188    
      5400   0.54           0              114.35194      114.35194      0.015212366    114.35194    
      5600   0.56           0              117.82775      117.82775      0.014446144    117.82775    
      5800   0.58           0              120.06993      120.06993      0.016637929    120.06993    
      6000   0.6            0              122.78188      122.78188      0.015992911    122.78188    
      6200   0.62           0              125.51193      125.51193      0.01298628     125.51193    
      6400   0.64           0              127.7715       127.7715       0.012504287    127.7715     
      6600   0.66           0              130.06532      130.06532      0.011464261    130.06532    
      6800   0.68           0              131.86847      131.86847      0.011891478    131.86847    
      7000   0.7            0              133.24564      133.24564      0.01055808     133.24564    
      7200   0.72           0              135.27301      135.27301      0.011864013    135.27301    
      7400   0.74           0              136.64418      136.64418      0.01279527     136.64418    
      7600   0.76           0              138.04543      138.04543      0.012531707    138.04543    
      7800   0.78           0              139.04496      139.04496      0.01305603     139.04496    
      8000   0.8            0              140.39498      140.39498      0.011757332    140.39498    
      8200   0.82           0              141.05557      141.05557      0.0085390182   141.05557    
      8400   0.84           0              141.99313      141.99313      0.009927179    141.99313    
      8600   0.86           0              143.23054      143.23054      0.0079396354   143.23054    
      8800   0.88           0              144.01399      144.01399      0.011033827    144.01399    
      9000   0.9            0              144.7952       144.7952       0.011639695    144.7952     
      9200   0.92           0              145.67211      145.67211      0.011432299    145.67211    
      9400   0.94           0              145.70724      145.70724      0.011309276    145.70724    
      9600   0.96           0              146.70588      146.70588      0.010058585    146.70588    
      9800   0.98           0              147.23422      147.23422      0.0074868113   147.23422    
     10000   1              0              148.26671      148.26671      0.0073881158   148.26671    
     10200   1.02           0              148.70699      148.70699      0.0078889852   148.70699    
     10400   1.04           0              149.42908      149.42908      0.0086565209   149.42908    
     10600   1.06           0              149.88177      149.88177      0.0086722846   149.88177    
     10800   1.08           0              150.01044      150.01044      0.0090124434   150.01044    
     11000   1.1            0              150.30075      150.30075      0.0082105558   150.30075    
     11200   1.12           0              150.75392      150.75392      0.008268657    150.75392    
     11400   1.14           0              151.06785      151.06785      0.0078436913   151.06785    
     11600   1.16           0              151.59393      151.59393      0.0070439338   151.59393    
     11800   1.18           0              152.15476      152.15476      0.0082706773   152.15476    
     12000   1.2            0              152.33417      152.33417      0.0066393427   152.33417    
     12200   1.22           0              153.12311      153.12311      0.0053738382   153.12311    
     12400   1.24           0              153.10258      153.10258      0.0047830926   153.10258    
     12600   1.26           0              153.66057      153.66057      0.0063655265   153.66057    
     12800   1.28           0              154.17077      154.17077      0.0076642647   154.17077    
     13000   1.3            0              153.93414      153.93414      0.0077361725   153.93414    
     13200   1.32           0              154.09021      154.09021      0.004939695    154.09021    
     13400   1.34           0              154.35234      154.35234      0.0034261299   154.35234    
     13600   1.36           0              154.43017      154.43017      0.0067712728   154.43017    
     13800   1.38           0              154.37931      154.37931      0.0081821612   154.37931    
     14000   1.4            0              154.72121      154.72121      0.0069989501   154.72121    
     14200   1.42           0              154.76917      154.76917      0.010091773    154.76917    
     14400   1.44           0              154.9011       154.9011       0.0069027026   154.9011     
     14600   1.46           0              155.09139      155.09139      0.0078043857   155.09139    
     14800   1.48           0              154.83082      154.83082      0.0089667177   154.83082    
     15000   1.5            0              155.21947      155.21947      0.0088260921   155.21947    
     15200   1.52           0              155.20687      155.20687      0.00847016     155.20687    
     15400   1.54           0              155.13505      155.13505      0.0094159821   155.13505    
     15600   1.56           0              154.69811      154.69811      0.01184734     154.69811    
     15800   1.58           0              154.94602      154.94602      0.012918174    154.94602    
     16000   1.6            0              154.81765      154.81765      0.010921162    154.81765    
     16200   1.62           0              155.21361      155.21361      0.010424674    155.21361    
     16400   1.64           0              155.04762      155.04762      0.010861688    155.04762    
     16600   1.66           0              154.82968      154.82968      0.0073886445   154.82968    
     16800   1.68           0              155.00698      155.00698      0.010266384    155.00698    
     17000   1.7            0              154.89398      154.89398      0.011747162    154.89398    
     17200   1.72           0              155.02569      155.02569      0.012880821    155.02569    
     17400   1.74           0              155.12085      155.12085      0.013329025    155.12085    
     17600   1.76           0              155.26999      155.26999      0.013497693    155.26999    
     17800   1.78           0              155.86646      155.86646      0.014830099    155.86646    
     18000   1.8            0              156.03142      156.03142      0.013456364    156.03142    
     18200   1.82           0              156.3009       156.3009       0.01298621     156.3009     
     18400   1.84           0              156.28348      156.28348      0.011197894    156.28348    
     18600   1.86           0              156.1112       156.1112       0.010282818    156.1112     
     18800   1.88           0              156.10702      156.10702      0.010476285    156.10702    
     19000   1.9            0              156.26959      156.26959      0.01121991     156.26959    
     19200   1.92           0              156.25863      156.25863      0.010683251    156.25863    
     19400   1.94           0              155.75944      155.75944      0.012566034    155.75944    
     19600   1.96           0              155.61478      155.61478      0.013376367    155.61478    
     19800   1.98           0              155.56073      155.56073      0.012989688    155.56073    
     20000   2              0              155.57866      155.57866      0.012036296    155.57866    
     20200   2.02           0              155.55466      155.55466      0.012109318    155.55466    
     20400   2.04           0              155.53073      155.53073      0.013506444    155.53073    
     20600   2.06           0              155.80946      155.80946      0.012934004    155.80946    
     20800   2.08           0              155.75548      155.75548      0.011714715    155.75548    
     21000   2.1            0              156.01193      156.01193      0.012348548    156.01193    
     21200   2.12           0              155.57198      155.57198      0.013638863    155.57198    
     21400   2.14           0              155.54091      155.54091      0.01579294     155.54091    
     21600   2.16           0              155.48245      155.48245      0.014993873    155.48245    
     21800   2.18           0              155.28292      155.28292      0.014770079    155.28292    
     22000   2.2            0              155.00898      155.00898      0.01449389     155.00898    
     22200   2.22           0              155.27126      155.27126      0.015134179    155.27126    
     22400   2.24           0              155.50988      155.50988      0.015154549    155.50988    
     22522   2.2522         0              155.65207      155.65207      0.014634598    155.65207    
Loop time of 551.066 on 1 procs for 20000 steps with 15000 atoms

Performance: 0.314 ns/day, 76.537 hours/ns, 36.293 timesteps/s, 544.400 katom-step/s
99.9% CPU use with 1 MPI tasks x 1 OpenMP threads

MPI task timing breakdown:
Section |  min time  |  avg time  |  max time  |%varavg| %total
---------------------------------------------------------------
Pair    | 140.09     | 140.09     | 140.09     |   0.0 | 25.42
Neigh   | 0          | 0          | 0          |   0.0 |  0.00
Comm    | 1.4857     | 1.4857     | 1.4857     |   0.0 |  0.27
Output  | 0.89578    | 0.89578    | 0.89578    |   0.0 |  0.16
Modify  | 404.66     | 404.66     | 404.66     |   0.0 | 73.43
Other   |            | 3.935      |            |       |  0.71

Nlocal:          15000 ave       15000 max       15000 min
Histogram: 1 0 0 0 0 0 0 0 0 0
Nghost:            707 ave         707 max         707 min
Histogram: 1 0 0 0 0 0 0 0 0 0
Neighs:              0 ave           0 max           0 min
Histogram: 1 0 0 0 0 0 0 0 0 0
FullNghs:        90000 ave       90000 max       90000 min
Histogram: 1 0 0 0 0 0 0 0 0 0

Total # of neighbors = 90000
Ave neighs/atom = 6
Neighbor list builds = 0
Dangerous builds = 0
DYNAMICS_T214_DONE
Total wall time: 0:09:11
