LAMMPS (10 Dec 2025 - Development - patch_10Dec2025-120-ga51f9ba0e7)
OMP_NUM_THREADS environment is not set. Defaulting to 1 thread.
  using 1 OpenMP thread(s) per MPI task
Reading restart file ...
  restart file = 10 Dec 2025, LAMMPS = 10 Dec 2025
  restoring atom style spin from restart
  orthogonal box = (0 0 -1.3575) to (407.25 235.1259 1.3575)
  1 by 1 by 1 MPI processor grid
  restoring pair style hybrid/overlay from restart
  15000 atoms
  read_restart CPU = 0.003 seconds

CITE-CITE-CITE-CITE-CITE-CITE-CITE-CITE-CITE-CITE-CITE-CITE-CITE

Your simulation uses code contributions which should be cited:
- fix nve/spin command: https://doi.org/10.1016/j.jcp.2018.06.042
The log file lists these citations in BibTeX format.

CITE-CITE-CITE-CITE-CITE-CITE-CITE-CITE-CITE-CITE-CITE-CITE-CITE

Generated 0 of 0 mixed pair_coeff terms from geometric mixing rule
Neighbor list info ...
  update: every = 10 steps, delay = 20 steps, check = yes
  max neighbors/atom: 2000, page size: 100000
  master list distance cutoff = 3.558
  ghost atom cutoff = 3.558
  binsize = 1.779, bins = 229 133 2
  3 neighbor lists, perpetual/occasional/extra = 3 0 0
  (1) pair spin/exchange, perpetual
      attributes: full, newton on
      pair build: full/bin/atomonly
      stencil: full/bin/3d
      bin: standard
  (2) pair spin/dmi, perpetual, copy from (1)
      attributes: full, newton on
      pair build: copy
      stencil: none
      bin: none
  (3) pair spin/magelec, perpetual, copy from (1)
      attributes: full, newton on
      pair build: copy
      stencil: none
      bin: none
WARNING: Dump 1 includes no atom IDs and is not sorted by ID. This may complicate post-processing tasks or visualization (src/dump.cpp:220)
Setting up Verlet run ...
  Unit style    : metal
  Current step  : 2522
  Time step     : 0.0001
Per MPI rank memory allocation (min/avg/max) = 6.591 | 6.591 | 6.591 Mbytes
   Step          Time           Temp          PotEng         TotEng      c_out_mag[4]   c_out_mag[5] 
      2522   0.2522         0             -1.0275171     -1.0275171      0.030922721   -1.0275171    
      2600   0.26           0              6.3817445      6.3817445      0.031173739    6.3817445    
      2800   0.28           0              23.044146      23.044146      0.027304003    23.044146    
      3000   0.3            0              37.141642      37.141642      0.024812974    37.141642    
      3200   0.32           0              49.368307      49.368307      0.022208134    49.368307    
      3400   0.34           0              59.759707      59.759707      0.020719943    59.759707    
      3600   0.36           0              69.254564      69.254564      0.019914948    69.254564    
      3800   0.38           0              76.864804      76.864804      0.01922995     76.864804    
      4000   0.4            0              84.294521      84.294521      0.019961926    84.294521    
      4200   0.42           0              90.951685      90.951685      0.02034358     90.951685    
      4400   0.44           0              96.879772      96.879772      0.02228719     96.879772    
      4600   0.46           0              101.99939      101.99939      0.024415695    101.99939    
      4800   0.48           0              106.50175      106.50175      0.02082684     106.50175    
      5000   0.5            0              111.26964      111.26964      0.016140957    111.26964    
      5200   0.52           0              114.67224      114.67224      0.0164417      114.67224    
      5400   0.54           0              117.93979      117.93979      0.014731002    117.93979    
      5600   0.56           0              120.89129      120.89129      0.012378608    120.89129    
      5800   0.58           0              123.59515      123.59515      0.011496469    123.59515    
      6000   0.6            0              126.15862      126.15862      0.010413373    126.15862    
      6200   0.62           0              128.62873      128.62873      0.0083918183   128.62873    
      6400   0.64           0              131.11014      131.11014      0.006432637    131.11014    
      6600   0.66           0              133.24542      133.24542      0.0059740845   133.24542    
      6800   0.68           0              135.19213      135.19213      0.0053787501   135.19213    
      7000   0.7            0              136.57678      136.57678      0.0078202461   136.57678    
      7200   0.72           0              138.06976      138.06976      0.0071424062   138.06976    
      7400   0.74           0              139.7474       139.7474       0.0071714648   139.7474     
      7600   0.76           0              140.97961      140.97961      0.0045164323   140.97961    
      7800   0.78           0              142.39119      142.39119      0.0056784202   142.39119    
      8000   0.8            0              143.6195       143.6195       0.0064730797   143.6195     
      8200   0.82           0              144.41863      144.41863      0.0090998589   144.41863    
      8400   0.84           0              145.49136      145.49136      0.011574722    145.49136    
      8600   0.86           0              146.23411      146.23411      0.011075405    146.23411    
      8800   0.88           0              146.3497       146.3497       0.010148865    146.3497     
      9000   0.9            0              147.12781      147.12781      0.010824381    147.12781    
      9200   0.92           0              147.64582      147.64582      0.010554111    147.64582    
      9400   0.94           0              147.71444      147.71444      0.011483238    147.71444    
      9600   0.96           0              148.19293      148.19293      0.0084005299   148.19293    
      9800   0.98           0              148.63644      148.63644      0.0081486074   148.63644    
     10000   1              0              149.26546      149.26546      0.010410347    149.26546    
     10200   1.02           0              150.21822      150.21822      0.012350453    150.21822    
     10400   1.04           0              150.72191      150.72191      0.0093746823   150.72191    
     10600   1.06           0              151.22434      151.22434      0.011716544    151.22434    
     10800   1.08           0              151.06157      151.06157      0.0093714359   151.06157    
     11000   1.1            0              151.25139      151.25139      0.011797376    151.25139    
     11200   1.12           0              151.54346      151.54346      0.012235696    151.54346    
     11400   1.14           0              152.53563      152.53563      0.010410434    152.53563    
     11600   1.16           0              152.5013       152.5013       0.0090116489   152.5013     
     11800   1.18           0              153.37248      153.37248      0.0098212754   153.37248    
     12000   1.2            0              153.61285      153.61285      0.01231287     153.61285    
     12200   1.22           0              153.95519      153.95519      0.012648534    153.95519    
     12400   1.24           0              153.93462      153.93462      0.0098743942   153.93462    
     12600   1.26           0              154.33101      154.33101      0.008356731    154.33101    
     12800   1.28           0              154.44384      154.44384      0.0083005297   154.44384    
     13000   1.3            0              154.98213      154.98213      0.010000111    154.98213    
     13200   1.32           0              155.11028      155.11028      0.0071202268   155.11028    
     13400   1.34           0              155.24206      155.24206      0.0052162228   155.24206    
     13600   1.36           0              155.3745       155.3745       0.0056598118   155.3745     
     13800   1.38           0              155.64787      155.64787      0.0067940987   155.64787    
     14000   1.4            0              155.69764      155.69764      0.010337331    155.69764    
     14200   1.42           0              155.13376      155.13376      0.012027965    155.13376    
     14400   1.44           0              155.57408      155.57408      0.0099572987   155.57408    
     14600   1.46           0              155.7531       155.7531       0.009443362    155.7531     
     14800   1.48           0              155.65444      155.65444      0.010074039    155.65444    
     15000   1.5            0              155.55404      155.55404      0.01069721     155.55404    
     15200   1.52           0              155.7556       155.7556       0.0077244363   155.7556     
     15400   1.54           0              155.81299      155.81299      0.0090501742   155.81299    
     15600   1.56           0              155.84139      155.84139      0.0080908374   155.84139    
     15800   1.58           0              155.42967      155.42967      0.0059563909   155.42967    
     16000   1.6            0              155.64588      155.64588      0.0045074243   155.64588    
     16200   1.62           0              155.4416       155.4416       0.0042373515   155.4416     
     16400   1.64           0              155.55233      155.55233      0.0049608312   155.55233    
     16600   1.66           0              155.16864      155.16864      0.0064116673   155.16864    
     16800   1.68           0              155.08735      155.08735      0.0076944901   155.08735    
     17000   1.7            0              155.41194      155.41194      0.0083925164   155.41194    
     17200   1.72           0              154.95321      154.95321      0.008016918    154.95321    
     17400   1.74           0              154.77236      154.77236      0.0075469905   154.77236    
     17600   1.76           0              154.58654      154.58654      0.006996979    154.58654    
     17800   1.78           0              154.70128      154.70128      0.010402314    154.70128    
     18000   1.8            0              154.76021      154.76021      0.012082479    154.76021    
     18200   1.82           0              154.67131      154.67131      0.011121374    154.67131    
     18400   1.84           0              154.43332      154.43332      0.010307858    154.43332    
     18600   1.86           0              154.06188      154.06188      0.010073494    154.06188    
     18800   1.88           0              154.29958      154.29958      0.010726444    154.29958    
     19000   1.9            0              154.5365       154.5365       0.0089211497   154.5365     
     19200   1.92           0              154.56165      154.56165      0.0074681745   154.56165    
     19400   1.94           0              154.47619      154.47619      0.0077845665   154.47619    
     19600   1.96           0              154.75814      154.75814      0.0083235036   154.75814    
     19800   1.98           0              154.75465      154.75465      0.0069905934   154.75465    
     20000   2              0              154.94128      154.94128      0.0046600382   154.94128    
     20200   2.02           0              155.25344      155.25344      0.0049601421   155.25344    
     20400   2.04           0              155.57781      155.57781      0.003483047    155.57781    
     20600   2.06           0              155.61284      155.61284      0.0068950834   155.61284    
     20800   2.08           0              155.88752      155.88752      0.0096341537   155.88752    
     21000   2.1            0              155.93636      155.93636      0.0087302288   155.93636    
     21200   2.12           0              156.35679      156.35679      0.0069279848   156.35679    
     21400   2.14           0              156.78494      156.78494      0.0075048519   156.78494    
     21600   2.16           0              156.73842      156.73842      0.0083680614   156.73842    
     21800   2.18           0              156.69636      156.69636      0.0091175121   156.69636    
     22000   2.2            0              156.50466      156.50466      0.0085865018   156.50466    
     22200   2.22           0              156.33868      156.33868      0.0061014409   156.33868    
     22400   2.24           0              156.10764      156.10764      0.0061922268   156.10764    
     22522   2.2522         0              156.23886      156.23886      0.0061329412   156.23886    
Loop time of 543.057 on 1 procs for 20000 steps with 15000 atoms

Performance: 0.318 ns/day, 75.425 hours/ns, 36.829 timesteps/s, 552.428 katom-step/s
99.9% CPU use with 1 MPI tasks x 1 OpenMP threads

MPI task timing breakdown:
Section |  min time  |  avg time  |  max time  |%varavg| %total
---------------------------------------------------------------
Pair    | 140.31     | 140.31     | 140.31     |   0.0 | 25.84
Neigh   | 0          | 0          | 0          |   0.0 |  0.00
Comm    | 1.4907     | 1.4907     | 1.4907     |   0.0 |  0.27
Output  | 0.92936    | 0.92936    | 0.92936    |   0.0 |  0.17
Modify  | 396.34     | 396.34     | 396.34     |   0.0 | 72.98
Other   |            | 3.986      |            |       |  0.73

Nlocal:          15000 ave       15000 max       15000 min
Histogram: 1 0 0 0 0 0 0 0 0 0
Nghost:            707 ave         707 max         707 min
Histogram: 1 0 0 0 0 0 0 0 0 0
Neighs:              0 ave           0 max           0 min
Histogram: 1 0 0 0 0 0 0 0 0 0
FullNghs:        90000 ave       90000 max       90000 min
Histogram: 1 0 0 0 0 0 0 0 0 0

Total # of neighbors = 90000
Ave neighs/atom = 6
Neighbor list builds = 0
Dangerous builds = 0
DYNAMICS_T222_DONE
Total wall time: 0:09:03
