LAMMPS (10 Dec 2025 - Development - patch_10Dec2025-120-ga51f9ba0e7)
OMP_NUM_THREADS environment is not set. Defaulting to 1 thread.
  using 1 OpenMP thread(s) per MPI task
Reading restart file ...
  restart file = 10 Dec 2025, LAMMPS = 10 Dec 2025
  restoring atom style spin from restart
  orthogonal box = (0 0 -1.3575) to (407.25 235.1259 1.3575)
  1 by 1 by 1 MPI processor grid
  restoring pair style hybrid/overlay from restart
  15000 atoms
  read_restart CPU = 0.004 seconds

CITE-CITE-CITE-CITE-CITE-CITE-CITE-CITE-CITE-CITE-CITE-CITE-CITE

Your simulation uses code contributions which should be cited:
- fix nve/spin command: https://doi.org/10.1016/j.jcp.2018.06.042
The log file lists these citations in BibTeX format.

CITE-CITE-CITE-CITE-CITE-CITE-CITE-CITE-CITE-CITE-CITE-CITE-CITE

Generated 0 of 0 mixed pair_coeff terms from geometric mixing rule
Neighbor list info ...
  update: every = 10 steps, delay = 20 steps, check = yes
  max neighbors/atom: 2000, page size: 100000
  master list distance cutoff = 3.558
  ghost atom cutoff = 3.558
  binsize = 1.779, bins = 229 133 2
  3 neighbor lists, perpetual/occasional/extra = 3 0 0
  (1) pair spin/exchange, perpetual
      attributes: full, newton on
      pair build: full/bin/atomonly
      stencil: full/bin/3d
      bin: standard
  (2) pair spin/dmi, perpetual, copy from (1)
      attributes: full, newton on
      pair build: copy
      stencil: none
      bin: none
  (3) pair spin/magelec, perpetual, copy from (1)
      attributes: full, newton on
      pair build: copy
      stencil: none
      bin: none
WARNING: Dump 1 includes no atom IDs and is not sorted by ID. This may complicate post-processing tasks or visualization (src/dump.cpp:220)
Setting up Verlet run ...
  Unit style    : metal
  Current step  : 2522
  Time step     : 0.0001
Per MPI rank memory allocation (min/avg/max) = 6.591 | 6.591 | 6.591 Mbytes
   Step          Time           Temp          PotEng         TotEng      c_out_mag[4]   c_out_mag[5] 
      2522   0.2522         0             -1.0275171     -1.0275171      0.030922721   -1.0275171    
      2600   0.26           0              6.1862179      6.1862179      0.030458086    6.1862179    
      2800   0.28           0              22.64514       22.64514       0.028522314    22.64514     
      3000   0.3            0              36.444068      36.444068      0.027928167    36.444068    
      3200   0.32           0              48.105723      48.105723      0.025805063    48.105723    
      3400   0.34           0              58.202922      58.202922      0.025039508    58.202922    
      3600   0.36           0              67.114448      67.114448      0.024668363    67.114448    
      3800   0.38           0              75.209618      75.209618      0.025358148    75.209618    
      4000   0.4            0              82.311378      82.311378      0.025037765    82.311378    
      4200   0.42           0              89.724324      89.724324      0.025414413    89.724324    
      4400   0.44           0              94.748149      94.748149      0.023951066    94.748149    
      4600   0.46           0              99.833752      99.833752      0.020424514    99.833752    
      4800   0.48           0              104.89039      104.89039      0.021109106    104.89039    
      5000   0.5            0              109.03181      109.03181      0.019337775    109.03181    
      5200   0.52           0              112.95131      112.95131      0.019921623    112.95131    
      5400   0.54           0              116.35667      116.35667      0.018708783    116.35667    
      5600   0.56           0              119.91725      119.91725      0.019804227    119.91725    
      5800   0.58           0              122.68598      122.68598      0.017738712    122.68598    
      6000   0.6            0              124.73214      124.73214      0.016838965    124.73214    
      6200   0.62           0              126.9406       126.9406       0.016959207    126.9406     
      6400   0.64           0              129.18544      129.18544      0.01655366     129.18544    
      6600   0.66           0              131.36865      131.36865      0.017095379    131.36865    
      6800   0.68           0              133.11363      133.11363      0.017679567    133.11363    
      7000   0.7            0              135.18934      135.18934      0.015690584    135.18934    
      7200   0.72           0              136.80674      136.80674      0.016678269    136.80674    
      7400   0.74           0              138.34585      138.34585      0.014419955    138.34585    
      7600   0.76           0              140.09295      140.09295      0.012345417    140.09295    
      7800   0.78           0              141.11322      141.11322      0.011674092    141.11322    
      8000   0.8            0              142.10682      142.10682      0.011223154    142.10682    
      8200   0.82           0              142.87369      142.87369      0.0088388183   142.87369    
      8400   0.84           0              143.73979      143.73979      0.0082996299   143.73979    
      8600   0.86           0              144.70492      144.70492      0.0067660699   144.70492    
      8800   0.88           0              145.30909      145.30909      0.0085398602   145.30909    
      9000   0.9            0              145.72481      145.72481      0.0089550127   145.72481    
      9200   0.92           0              146.50266      146.50266      0.0083184147   146.50266    
      9400   0.94           0              146.90138      146.90138      0.0068804607   146.90138    
      9600   0.96           0              147.92146      147.92146      0.0059001562   147.92146    
      9800   0.98           0              148.86511      148.86511      0.0067727623   148.86511    
     10000   1              0              149.54816      149.54816      0.00792392     149.54816    
     10200   1.02           0              150.05234      150.05234      0.0062854356   150.05234    
     10400   1.04           0              150.46271      150.46271      0.0081537089   150.46271    
     10600   1.06           0              150.5904       150.5904       0.0086170554   150.5904     
     10800   1.08           0              151.04571      151.04571      0.01119352     151.04571    
     11000   1.1            0              151.72642      151.72642      0.009425961    151.72642    
     11200   1.12           0              152.22613      152.22613      0.009535548    152.22613    
     11400   1.14           0              152.14188      152.14188      0.0079128917   152.14188    
     11600   1.16           0              152.20547      152.20547      0.009374168    152.20547    
     11800   1.18           0              152.29982      152.29982      0.0047976139   152.29982    
     12000   1.2            0              152.14798      152.14798      0.0060874382   152.14798    
     12200   1.22           0              152.35984      152.35984      0.0072888134   152.35984    
     12400   1.24           0              152.6134       152.6134       0.0070318333   152.6134     
     12600   1.26           0              152.93027      152.93027      0.0080894385   152.93027    
     12800   1.28           0              153.02547      153.02547      0.008180343    153.02547    
     13000   1.3            0              153.29291      153.29291      0.0041315789   153.29291    
     13200   1.32           0              153.42165      153.42165      0.0025047121   153.42165    
     13400   1.34           0              153.53892      153.53892      0.0045927826   153.53892    
     13600   1.36           0              153.34987      153.34987      0.002887743    153.34987    
     13800   1.38           0              153.61529      153.61529      0.0034271418   153.61529    
     14000   1.4            0              153.87415      153.87415      0.0046869588   153.87415    
     14200   1.42           0              154.18275      154.18275      0.0067387908   154.18275    
     14400   1.44           0              154.23843      154.23843      0.0074709412   154.23843    
     14600   1.46           0              154.33891      154.33891      0.0074481427   154.33891    
     14800   1.48           0              154.31735      154.31735      0.0073042422   154.31735    
     15000   1.5            0              154.72066      154.72066      0.0087637955   154.72066    
     15200   1.52           0              154.35478      154.35478      0.0095663416   154.35478    
     15400   1.54           0              154.28269      154.28269      0.011672519    154.28269    
     15600   1.56           0              154.04474      154.04474      0.010803649    154.04474    
     15800   1.58           0              153.9071       153.9071       0.0090617712   153.9071     
     16000   1.6            0              154.15084      154.15084      0.008501071    154.15084    
     16200   1.62           0              154.01205      154.01205      0.0079563539   154.01205    
     16400   1.64           0              154.67968      154.67968      0.00825474     154.67968    
     16600   1.66           0              154.7563       154.7563       0.0091104712   154.7563     
     16800   1.68           0              154.67136      154.67136      0.010119047    154.67136    
     17000   1.7            0              154.88861      154.88861      0.0088106969   154.88861    
     17200   1.72           0              154.94212      154.94212      0.01042127     154.94212    
     17400   1.74           0              155.10322      155.10322      0.01054265     155.10322    
     17600   1.76           0              155.391        155.391        0.0091734053   155.391      
     17800   1.78           0              155.5667       155.5667       0.0090228689   155.5667     
     18000   1.8            0              155.54094      155.54094      0.0089800105   155.54094    
     18200   1.82           0              155.70005      155.70005      0.0087021345   155.70005    
     18400   1.84           0              155.57104      155.57104      0.0091806382   155.57104    
     18600   1.86           0              155.68473      155.68473      0.0094225166   155.68473    
     18800   1.88           0              155.19726      155.19726      0.0065374788   155.19726    
     19000   1.9            0              155.17847      155.17847      0.0092218408   155.17847    
     19200   1.92           0              155.20118      155.20118      0.010158846    155.20118    
     19400   1.94           0              155.17466      155.17466      0.0093127644   155.17466    
     19600   1.96           0              155.53496      155.53496      0.011483911    155.53496    
     19800   1.98           0              155.84251      155.84251      0.011166917    155.84251    
     20000   2              0              155.45808      155.45808      0.011520326    155.45808    
     20200   2.02           0              155.41467      155.41467      0.010880735    155.41467    
     20400   2.04           0              155.24782      155.24782      0.0087264157   155.24782    
     20600   2.06           0              155.23331      155.23331      0.0098863973   155.23331    
     20800   2.08           0              155.10981      155.10981      0.0080013612   155.10981    
     21000   2.1            0              154.78972      154.78972      0.01015245     154.78972    
     21200   2.12           0              154.60169      154.60169      0.0081544092   154.60169    
     21400   2.14           0              155.13361      155.13361      0.0095879086   155.13361    
     21600   2.16           0              155.28273      155.28273      0.0089689254   155.28273    
     21800   2.18           0              155.19102      155.19102      0.0085203749   155.19102    
     22000   2.2            0              154.97534      154.97534      0.0054028029   154.97534    
     22200   2.22           0              155.61035      155.61035      0.0033102819   155.61035    
     22400   2.24           0              155.8331       155.8331       0.0025333906   155.8331     
     22522   2.2522         0              156.03959      156.03959      0.0041903772   156.03959    
Loop time of 561.483 on 1 procs for 20000 steps with 15000 atoms

Performance: 0.308 ns/day, 77.984 hours/ns, 35.620 timesteps/s, 534.299 katom-step/s
99.9% CPU use with 1 MPI tasks x 1 OpenMP threads

MPI task timing breakdown:
Section |  min time  |  avg time  |  max time  |%varavg| %total
---------------------------------------------------------------
Pair    | 143.02     | 143.02     | 143.02     |   0.0 | 25.47
Neigh   | 0          | 0          | 0          |   0.0 |  0.00
Comm    | 1.482      | 1.482      | 1.482      |   0.0 |  0.26
Output  | 0.94747    | 0.94747    | 0.94747    |   0.0 |  0.17
Modify  | 412.07     | 412.07     | 412.07     |   0.0 | 73.39
Other   |            | 3.958      |            |       |  0.70

Nlocal:          15000 ave       15000 max       15000 min
Histogram: 1 0 0 0 0 0 0 0 0 0
Nghost:            707 ave         707 max         707 min
Histogram: 1 0 0 0 0 0 0 0 0 0
Neighs:              0 ave           0 max           0 min
Histogram: 1 0 0 0 0 0 0 0 0 0
FullNghs:        90000 ave       90000 max       90000 min
Histogram: 1 0 0 0 0 0 0 0 0 0

Total # of neighbors = 90000
Ave neighs/atom = 6
Neighbor list builds = 0
Dangerous builds = 0
DYNAMICS_T218_DONE
Total wall time: 0:09:21
