LAMMPS (10 Dec 2025 - Development - patch_10Dec2025-120-ga51f9ba0e7)
OMP_NUM_THREADS environment is not set. Defaulting to 1 thread.
  using 1 OpenMP thread(s) per MPI task
Reading restart file ...
  restart file = 10 Dec 2025, LAMMPS = 10 Dec 2025
  restoring atom style spin from restart
  triclinic box = (0 0 0) to (86.604109 72.44143 33.758371) with tilt (47.827887 47.809739 49.151162)
WARNING: Triclinic box skew is large. LAMMPS will run inefficiently. (src/domain.cpp:221)
  1 by 1 by 1 MPI processor grid
  restoring pair style hybrid/overlay from restart
  2048 atoms
  read_restart CPU = 0.001 seconds

CITE-CITE-CITE-CITE-CITE-CITE-CITE-CITE-CITE-CITE-CITE-CITE-CITE

Your simulation uses code contributions which should be cited:
- fix nve/spin command: https://doi.org/10.1016/j.jcp.2018.06.042
The log file lists these citations in BibTeX format.

CITE-CITE-CITE-CITE-CITE-CITE-CITE-CITE-CITE-CITE-CITE-CITE-CITE

Generated 0 of 0 mixed pair_coeff terms from geometric mixing rule
Neighbor list info ...
  update: every = 10 steps, delay = 20 steps, check = yes
  max neighbors/atom: 2000, page size: 100000
  master list distance cutoff = 5.55
  ghost atom cutoff = 5.55
  binsize = 2.775, bins = 66 44 13
  3 neighbor lists, perpetual/occasional/extra = 3 0 0
  (1) pair spin/exchange, perpetual
      attributes: full, newton on
      pair build: full/bin/atomonly
      stencil: full/bin/3d
      bin: standard
  (2) pair spin/dmi, perpetual, copy from (1)
      attributes: full, newton on
      pair build: copy
      stencil: none
      bin: none
  (3) pair spin/magelec, perpetual, copy from (1)
      attributes: full, newton on
      pair build: copy
      stencil: none
      bin: none
WARNING: Dump 1 includes no atom IDs and is not sorted by ID. This may complicate post-processing tasks or visualization (src/dump.cpp:220)
Setting up Verlet run ...
  Unit style    : metal
  Current step  : 396
  Time step     : 0.0001
Per MPI rank memory allocation (min/avg/max) = 5.919 | 5.919 | 5.919 Mbytes
   Step          Time           Temp          PotEng         TotEng      c_out_mag[4]   c_out_mag[5] 
       396   0.0396         0              0.16923922     0.16923922     0.071743915    0.16923922   
       400   0.04           0              0.36610187     0.36610187     0.071735623    0.36610187   
       600   0.06           0              8.4173271      8.4173271      0.070970169    8.4173271    
       800   0.08           0              14.897384      14.897384      0.065944076    14.897384    
      1000   0.1            0              19.309338      19.309338      0.072508834    19.309338    
      1200   0.12           0              22.582692      22.582692      0.069388376    22.582692    
      1400   0.14           0              25.46152       25.46152       0.066826552    25.46152     
      1600   0.16           0              27.686485      27.686485      0.067294539    27.686485    
      1800   0.18           0              29.739994      29.739994      0.069039623    29.739994    
      2000   0.2            0              30.792762      30.792762      0.071373494    30.792762    
      2200   0.22           0              32.349741      32.349741      0.070446133    32.349741    
      2400   0.24           0              32.920246      32.920246      0.068105873    32.920246    
      2600   0.26           0              34.326868      34.326868      0.060897153    34.326868    
      2800   0.28           0              35.600384      35.600384      0.057292398    35.600384    
      3000   0.3            0              37.482329      37.482329      0.055316342    37.482329    
      3200   0.32           0              39.207047      39.207047      0.054394234    39.207047    
      3400   0.34           0              39.823791      39.823791      0.05134034     39.823791    
      3600   0.36           0              40.433201      40.433201      0.047452947    40.433201    
      3800   0.38           0              40.865647      40.865647      0.045148579    40.865647    
      4000   0.4            0              41.040654      41.040654      0.050349697    41.040654    
      4200   0.42           0              41.909377      41.909377      0.051580403    41.909377    
      4400   0.44           0              42.572574      42.572574      0.050716114    42.572574    
      4600   0.46           0              42.907167      42.907167      0.048669704    42.907167    
      4800   0.48           0              43.322034      43.322034      0.049974665    43.322034    
      5000   0.5            0              43.879446      43.879446      0.046340064    43.879446    
      5200   0.52           0              44.289509      44.289509      0.044189338    44.289509    
      5400   0.54           0              44.799613      44.799613      0.041701182    44.799613    
      5600   0.56           0              45.610826      45.610826      0.038840304    45.610826    
      5800   0.58           0              45.503656      45.503656      0.037688428    45.503656    
      6000   0.6            0              45.231522      45.231522      0.034092514    45.231522    
      6200   0.62           0              45.09791       45.09791       0.038674553    45.09791     
      6400   0.64           0              45.202226      45.202226      0.04376602     45.202226    
      6600   0.66           0              45.429598      45.429598      0.049034479    45.429598    
      6800   0.68           0              45.67641       45.67641       0.050158341    45.67641     
      7000   0.7            0              45.938358      45.938358      0.054599412    45.938358    
      7200   0.72           0              46.416252      46.416252      0.04950712     46.416252    
      7400   0.74           0              46.705618      46.705618      0.055851758    46.705618    
      7600   0.76           0              46.986592      46.986592      0.056125971    46.986592    
      7800   0.78           0              47.316915      47.316915      0.054606075    47.316915    
      8000   0.8            0              47.733817      47.733817      0.052428202    47.733817    
      8200   0.82           0              48.211816      48.211816      0.048739761    48.211816    
      8400   0.84           0              48.444156      48.444156      0.055394758    48.444156    
      8600   0.86           0              48.648156      48.648156      0.05874321     48.648156    
      8800   0.88           0              49.115905      49.115905      0.065065259    49.115905    
      9000   0.9            0              49.202154      49.202154      0.053292008    49.202154    
      9200   0.92           0              49.053989      49.053989      0.048123925    49.053989    
      9400   0.94           0              49.465438      49.465438      0.049544423    49.465438    
      9600   0.96           0              49.834876      49.834876      0.047744784    49.834876    
      9800   0.98           0              50.120407      50.120407      0.040901799    50.120407    
     10000   1              0              50.066038      50.066038      0.037184621    50.066038    
     10200   1.02           0              50.304083      50.304083      0.031692574    50.304083    
     10400   1.04           0              50.693186      50.693186      0.032010727    50.693186    
     10600   1.06           0              50.912132      50.912132      0.031960221    50.912132    
     10800   1.08           0              51.017689      51.017689      0.034706281    51.017689    
     11000   1.1            0              51.405587      51.405587      0.034634041    51.405587    
     11200   1.12           0              50.94581       50.94581       0.03195991     50.94581     
     11400   1.14           0              50.121084      50.121084      0.038901075    50.121084    
     11600   1.16           0              50.498085      50.498085      0.036311777    50.498085    
     11800   1.18           0              50.29408       50.29408       0.034010935    50.29408     
     12000   1.2            0              50.083914      50.083914      0.024960841    50.083914    
     12200   1.22           0              50.514858      50.514858      0.0238219      50.514858    
     12400   1.24           0              50.349308      50.349308      0.017495188    50.349308    
     12600   1.26           0              50.519513      50.519513      0.017093702    50.519513    
     12800   1.28           0              50.390406      50.390406      0.012843684    50.390406    
     13000   1.3            0              50.663147      50.663147      0.016927843    50.663147    
     13200   1.32           0              50.510939      50.510939      0.016457039    50.510939    
     13400   1.34           0              50.799554      50.799554      0.024384622    50.799554    
     13600   1.36           0              50.961507      50.961507      0.030050538    50.961507    
     13800   1.38           0              50.594303      50.594303      0.02531998     50.594303    
     14000   1.4            0              50.338585      50.338585      0.018480111    50.338585    
     14200   1.42           0              50.30606       50.30606       0.018105662    50.30606     
     14400   1.44           0              50.295089      50.295089      0.016169014    50.295089    
     14600   1.46           0              50.716292      50.716292      0.023976457    50.716292    
     14800   1.48           0              50.589542      50.589542      0.0302932      50.589542    
     15000   1.5            0              50.61842       50.61842       0.035248095    50.61842     
     15200   1.52           0              50.745994      50.745994      0.035256506    50.745994    
     15400   1.54           0              51.164485      51.164485      0.044523941    51.164485    
     15600   1.56           0              51.893244      51.893244      0.046225434    51.893244    
     15800   1.58           0              52.029758      52.029758      0.036569054    52.029758    
     16000   1.6            0              51.984472      51.984472      0.04356169     51.984472    
     16200   1.62           0              51.844353      51.844353      0.040294052    51.844353    
     16400   1.64           0              51.695268      51.695268      0.035811955    51.695268    
     16600   1.66           0              51.757333      51.757333      0.03289757     51.757333    
     16800   1.68           0              51.505512      51.505512      0.028844143    51.505512    
     17000   1.7            0              51.069685      51.069685      0.025296852    51.069685    
     17200   1.72           0              51.714594      51.714594      0.031164782    51.714594    
     17400   1.74           0              51.231221      51.231221      0.031864057    51.231221    
     17600   1.76           0              50.928278      50.928278      0.032685861    50.928278    
     17800   1.78           0              50.657051      50.657051      0.037386802    50.657051    
     18000   1.8            0              50.487563      50.487563      0.041748745    50.487563    
     18200   1.82           0              50.670472      50.670472      0.038891141    50.670472    
     18400   1.84           0              50.815191      50.815191      0.043414335    50.815191    
     18600   1.86           0              50.244164      50.244164      0.04810984     50.244164    
     18800   1.88           0              50.725197      50.725197      0.044767039    50.725197    
     19000   1.9            0              50.930213      50.930213      0.04759161     50.930213    
     19200   1.92           0              51.082039      51.082039      0.042260984    51.082039    
     19400   1.94           0              51.03073       51.03073       0.04549217     51.03073     
     19600   1.96           0              51.561115      51.561115      0.045155186    51.561115    
     19800   1.98           0              51.907023      51.907023      0.050584519    51.907023    
     20000   2              0              51.780704      51.780704      0.048295135    51.780704    
     20200   2.02           0              52.097903      52.097903      0.055841634    52.097903    
     20396   2.0396         0              51.966376      51.966376      0.05042966     51.966376    
Loop time of 79.047 on 1 procs for 20000 steps with 2048 atoms

Performance: 2.186 ns/day, 10.979 hours/ns, 253.014 timesteps/s, 518.173 katom-step/s
100.0% CPU use with 1 MPI tasks x 1 OpenMP threads

MPI task timing breakdown:
Section |  min time  |  avg time  |  max time  |%varavg| %total
---------------------------------------------------------------
Pair    | 20.64      | 20.64      | 20.64      |   0.0 | 26.11
Neigh   | 0          | 0          | 0          |   0.0 |  0.00
Comm    | 0.68871    | 0.68871    | 0.68871    |   0.0 |  0.87
Output  | 0.11608    | 0.11608    | 0.11608    |   0.0 |  0.15
Modify  | 57.509     | 57.509     | 57.509     |   0.0 | 72.75
Other   |            | 0.09333    |            |       |  0.12

Nlocal:           2048 ave        2048 max        2048 min
Histogram: 1 0 0 0 0 0 0 0 0 0
Nghost:           1732 ave        1732 max        1732 min
Histogram: 1 0 0 0 0 0 0 0 0 0
Neighs:              0 ave           0 max           0 min
Histogram: 1 0 0 0 0 0 0 0 0 0
FullNghs:        24576 ave       24576 max       24576 min
Histogram: 1 0 0 0 0 0 0 0 0 0

Total # of neighbors = 24576
Ave neighs/atom = 12
Neighbor list builds = 0
Dangerous builds = 0
DYNAMICS_T250_DONE
Total wall time: 0:01:19
