LAMMPS (10 Dec 2025 - Development - patch_10Dec2025-120-ga51f9ba0e7)
OMP_NUM_THREADS environment is not set. Defaulting to 1 thread.
  using 1 OpenMP thread(s) per MPI task
Reading restart file ...
  restart file = 10 Dec 2025, LAMMPS = 10 Dec 2025
  restoring atom style spin from restart
  orthogonal box = (0 0 -1.3575) to (407.25 235.1259 1.3575)
  1 by 1 by 1 MPI processor grid
  restoring pair style hybrid/overlay from restart
  15000 atoms
  read_restart CPU = 0.003 seconds

CITE-CITE-CITE-CITE-CITE-CITE-CITE-CITE-CITE-CITE-CITE-CITE-CITE

Your simulation uses code contributions which should be cited:
- fix nve/spin command: https://doi.org/10.1016/j.jcp.2018.06.042
The log file lists these citations in BibTeX format.

CITE-CITE-CITE-CITE-CITE-CITE-CITE-CITE-CITE-CITE-CITE-CITE-CITE

Generated 0 of 0 mixed pair_coeff terms from geometric mixing rule
Neighbor list info ...
  update: every = 10 steps, delay = 20 steps, check = yes
  max neighbors/atom: 2000, page size: 100000
  master list distance cutoff = 3.558
  ghost atom cutoff = 3.558
  binsize = 1.779, bins = 229 133 2
  3 neighbor lists, perpetual/occasional/extra = 3 0 0
  (1) pair spin/exchange, perpetual
      attributes: full, newton on
      pair build: full/bin/atomonly
      stencil: full/bin/3d
      bin: standard
  (2) pair spin/dmi, perpetual, copy from (1)
      attributes: full, newton on
      pair build: copy
      stencil: none
      bin: none
  (3) pair spin/magelec, perpetual, copy from (1)
      attributes: full, newton on
      pair build: copy
      stencil: none
      bin: none
WARNING: Dump 1 includes no atom IDs and is not sorted by ID. This may complicate post-processing tasks or visualization (src/dump.cpp:220)
Setting up Verlet run ...
  Unit style    : metal
  Current step  : 2522
  Time step     : 0.0001
Per MPI rank memory allocation (min/avg/max) = 6.591 | 6.591 | 6.591 Mbytes
   Step          Time           Temp          PotEng         TotEng      c_out_mag[4]   c_out_mag[5] 
      2522   0.2522         0             -1.0275171     -1.0275171      0.030922721   -1.0275171    
      2600   0.26           0              5.4397783      5.4397783      0.030522268    5.4397783    
      2800   0.28           0              20.304396      20.304396      0.028773164    20.304396    
      3000   0.3            0              32.885287      32.885287      0.028253873    32.885287    
      3200   0.32           0              43.604431      43.604431      0.026364268    43.604431    
      3400   0.34           0              52.962321      52.962321      0.025646675    52.962321    
      3600   0.36           0              61.296618      61.296618      0.025369516    61.296618    
      3800   0.38           0              68.910261      68.910261      0.026031607    68.910261    
      4000   0.4            0              75.615331      75.615331      0.025828055    75.615331    
      4200   0.42           0              82.668097      82.668097      0.026248509    82.668097    
      4400   0.44           0              87.513351      87.513351      0.02475048     87.513351    
      4600   0.46           0              92.410487      92.410487      0.021562588    92.410487    
      4800   0.48           0              97.364585      97.364585      0.022373291    97.364585    
      5000   0.5            0              101.41068      101.41068      0.020486215    101.41068    
      5200   0.52           0              105.36175      105.36175      0.021272184    105.36175    
      5400   0.54           0              108.67871      108.67871      0.020194893    108.67871    
      5600   0.56           0              112.26188      112.26188      0.021375039    112.26188    
      5800   0.58           0              115.08242      115.08242      0.019228833    115.08242    
      6000   0.6            0              117.26461      117.26461      0.018340704    117.26461    
      6200   0.62           0              119.62717      119.62717      0.019195249    119.62717    
      6400   0.64           0              121.93355      121.93355      0.019476921    121.93355    
      6600   0.66           0              124.16397      124.16397      0.01959059     124.16397    
      6800   0.68           0              125.92844      125.92844      0.019178342    125.92844    
      7000   0.7            0              128.02269      128.02269      0.018130575    128.02269    
      7200   0.72           0              129.90102      129.90102      0.01896233     129.90102    
      7400   0.74           0              131.58096      131.58096      0.017410906    131.58096    
      7600   0.76           0              133.46281      133.46281      0.015538903    133.46281    
      7800   0.78           0              134.67256      134.67256      0.014481729    134.67256    
      8000   0.8            0              135.94559      135.94559      0.013806016    135.94559    
      8200   0.82           0              137.17211      137.17211      0.012203402    137.17211    
      8400   0.84           0              138.16589      138.16589      0.012507949    138.16589    
      8600   0.86           0              139.44678      139.44678      0.011158234    139.44678    
      8800   0.88           0              140.12325      140.12325      0.010211074    140.12325    
      9000   0.9            0              140.87455      140.87455      0.0096917299   140.87455    
      9200   0.92           0              141.54134      141.54134      0.009739909    141.54134    
      9400   0.94           0              142.41694      142.41694      0.0081157651   142.41694    
      9600   0.96           0              142.86564      142.86564      0.0057513986   142.86564    
      9800   0.98           0              143.89249      143.89249      0.0047272971   143.89249    
     10000   1              0              144.32165      144.32165      0.0039679523   144.32165    
     10200   1.02           0              144.74793      144.74793      0.0032079734   144.74793    
     10400   1.04           0              145.12394      145.12394      0.0040452671   145.12394    
     10600   1.06           0              145.71628      145.71628      0.0050998811   145.71628    
     10800   1.08           0              146.44462      146.44462      0.0044270498   146.44462    
     11000   1.1            0              147.00796      147.00796      0.0049388633   147.00796    
     11200   1.12           0              147.52888      147.52888      0.0052179555   147.52888    
     11400   1.14           0              148.08943      148.08943      0.0069117992   148.08943    
     11600   1.16           0              148.10224      148.10224      0.0084696039   148.10224    
     11800   1.18           0              148.32724      148.32724      0.0067223063   148.32724    
     12000   1.2            0              148.74497      148.74497      0.0058235275   148.74497    
     12200   1.22           0              149.10519      149.10519      0.0028895852   149.10519    
     12400   1.24           0              149.24842      149.24842      0.004253846    149.24842    
     12600   1.26           0              149.50554      149.50554      0.0068158005   149.50554    
     12800   1.28           0              149.58691      149.58691      0.0078557475   149.58691    
     13000   1.3            0              149.53197      149.53197      0.0071719229   149.53197    
     13200   1.32           0              149.76284      149.76284      0.0080525008   149.76284    
     13400   1.34           0              149.82034      149.82034      0.010203573    149.82034    
     13600   1.36           0              149.61328      149.61328      0.010705093    149.61328    
     13800   1.38           0              149.87135      149.87135      0.010576055    149.87135    
     14000   1.4            0              150.47528      150.47528      0.0095231888   150.47528    
     14200   1.42           0              150.83988      150.83988      0.0093466528   150.83988    
     14400   1.44           0              151.0075       151.0075       0.0067142098   151.0075     
     14600   1.46           0              151.17312      151.17312      0.0092763039   151.17312    
     14800   1.48           0              151.25648      151.25648      0.009074348    151.25648    
     15000   1.5            0              151.52449      151.52449      0.0087736645   151.52449    
     15200   1.52           0              151.99636      151.99636      0.0091710298   151.99636    
     15400   1.54           0              152.30189      152.30189      0.0092565443   152.30189    
     15600   1.56           0              152.10029      152.10029      0.011993283    152.10029    
     15800   1.58           0              151.9284       151.9284       0.011735936    151.9284     
     16000   1.6            0              151.95829      151.95829      0.010457606    151.95829    
     16200   1.62           0              152.56017      152.56017      0.012133639    152.56017    
     16400   1.64           0              152.65474      152.65474      0.013008681    152.65474    
     16600   1.66           0              152.95367      152.95367      0.012940336    152.95367    
     16800   1.68           0              153.38332      153.38332      0.011426566    153.38332    
     17000   1.7            0              153.06253      153.06253      0.012161665    153.06253    
     17200   1.72           0              152.76209      152.76209      0.011491084    152.76209    
     17400   1.74           0              152.48117      152.48117      0.012315621    152.48117    
     17600   1.76           0              152.63582      152.63582      0.011998737    152.63582    
     17800   1.78           0              153.01018      153.01018      0.010969961    153.01018    
     18000   1.8            0              153.40113      153.40113      0.013456418    153.40113    
     18200   1.82           0              153.41855      153.41855      0.015145214    153.41855    
     18400   1.84           0              153.19942      153.19942      0.013796167    153.19942    
     18600   1.86           0              153.21342      153.21342      0.015897612    153.21342    
     18800   1.88           0              153.03274      153.03274      0.016332506    153.03274    
     19000   1.9            0              153.16479      153.16479      0.015796778    153.16479    
     19200   1.92           0              153.0822       153.0822       0.016608456    153.0822     
     19400   1.94           0              153.60817      153.60817      0.014920739    153.60817    
     19600   1.96           0              153.72058      153.72058      0.016221906    153.72058    
     19800   1.98           0              153.6406       153.6406       0.017824927    153.6406     
     20000   2              0              153.75378      153.75378      0.015760465    153.75378    
     20200   2.02           0              153.89164      153.89164      0.014916251    153.89164    
     20400   2.04           0              153.89362      153.89362      0.015882405    153.89362    
     20600   2.06           0              153.99714      153.99714      0.012669829    153.99714    
     20800   2.08           0              154.26183      154.26183      0.012267596    154.26183    
     21000   2.1            0              154.19867      154.19867      0.013781449    154.19867    
     21200   2.12           0              154.013        154.013        0.011174384    154.013      
     21400   2.14           0              154.04342      154.04342      0.011047442    154.04342    
     21600   2.16           0              153.86063      153.86063      0.012435772    153.86063    
     21800   2.18           0              153.60021      153.60021      0.012558923    153.60021    
     22000   2.2            0              153.88858      153.88858      0.011501437    153.88858    
     22200   2.22           0              153.68419      153.68419      0.010971069    153.68419    
     22400   2.24           0              153.88058      153.88058      0.007815895    153.88058    
     22522   2.2522         0              153.76566      153.76566      0.0054734413   153.76566    
Loop time of 593.68 on 1 procs for 20000 steps with 15000 atoms

Performance: 0.291 ns/day, 82.455 hours/ns, 33.688 timesteps/s, 505.323 katom-step/s
100.0% CPU use with 1 MPI tasks x 1 OpenMP threads

MPI task timing breakdown:
Section |  min time  |  avg time  |  max time  |%varavg| %total
---------------------------------------------------------------
Pair    | 147.69     | 147.69     | 147.69     |   0.0 | 24.88
Neigh   | 0          | 0          | 0          |   0.0 |  0.00
Comm    | 0.49673    | 0.49673    | 0.49673    |   0.0 |  0.08
Output  | 0.9059     | 0.9059     | 0.9059     |   0.0 |  0.15
Modify  | 443.23     | 443.23     | 443.23     |   0.0 | 74.66
Other   |            | 1.359      |            |       |  0.23

Nlocal:          15000 ave       15000 max       15000 min
Histogram: 1 0 0 0 0 0 0 0 0 0
Nghost:            707 ave         707 max         707 min
Histogram: 1 0 0 0 0 0 0 0 0 0
Neighs:              0 ave           0 max           0 min
Histogram: 1 0 0 0 0 0 0 0 0 0
FullNghs:        90000 ave       90000 max       90000 min
Histogram: 1 0 0 0 0 0 0 0 0 0

Total # of neighbors = 90000
Ave neighs/atom = 6
Neighbor list builds = 0
Dangerous builds = 0
DYNAMICS_T195_DONE
Total wall time: 0:09:53
