LAMMPS (10 Dec 2025 - Development - patch_10Dec2025-120-ga51f9ba0e7)
OMP_NUM_THREADS environment is not set. Defaulting to 1 thread.
  using 1 OpenMP thread(s) per MPI task
Reading restart file ...
  restart file = 10 Dec 2025, LAMMPS = 10 Dec 2025
  restoring atom style spin from restart
  orthogonal box = (0 0 -1.3575) to (407.25 235.1259 1.3575)
  1 by 1 by 1 MPI processor grid
  restoring pair style hybrid/overlay from restart
  15000 atoms
  read_restart CPU = 0.003 seconds

CITE-CITE-CITE-CITE-CITE-CITE-CITE-CITE-CITE-CITE-CITE-CITE-CITE

Your simulation uses code contributions which should be cited:
- fix nve/spin command: https://doi.org/10.1016/j.jcp.2018.06.042
The log file lists these citations in BibTeX format.

CITE-CITE-CITE-CITE-CITE-CITE-CITE-CITE-CITE-CITE-CITE-CITE-CITE

Generated 0 of 0 mixed pair_coeff terms from geometric mixing rule
Neighbor list info ...
  update: every = 10 steps, delay = 20 steps, check = yes
  max neighbors/atom: 2000, page size: 100000
  master list distance cutoff = 3.558
  ghost atom cutoff = 3.558
  binsize = 1.779, bins = 229 133 2
  3 neighbor lists, perpetual/occasional/extra = 3 0 0
  (1) pair spin/exchange, perpetual
      attributes: full, newton on
      pair build: full/bin/atomonly
      stencil: full/bin/3d
      bin: standard
  (2) pair spin/dmi, perpetual, copy from (1)
      attributes: full, newton on
      pair build: copy
      stencil: none
      bin: none
  (3) pair spin/magelec, perpetual, copy from (1)
      attributes: full, newton on
      pair build: copy
      stencil: none
      bin: none
WARNING: Dump 1 includes no atom IDs and is not sorted by ID. This may complicate post-processing tasks or visualization (src/dump.cpp:220)
Setting up Verlet run ...
  Unit style    : metal
  Current step  : 2522
  Time step     : 0.0001
Per MPI rank memory allocation (min/avg/max) = 6.591 | 6.591 | 6.591 Mbytes
   Step          Time           Temp          PotEng         TotEng      c_out_mag[4]   c_out_mag[5] 
      2522   0.2522         0             -1.0275171     -1.0275171      0.030922721   -1.0275171    
      2600   0.26           0              7.1304419      7.1304419      0.031147581    7.1304419    
      2800   0.28           0              25.34492       25.34492       0.027012822    25.34492     
      3000   0.3            0              40.601723      40.601723      0.024415154    40.601723    
      3200   0.32           0              53.721273      53.721273      0.021590791    53.721273    
      3400   0.34           0              64.78244       64.78244       0.019958487    64.78244     
      3600   0.36           0              74.792793      74.792793      0.019087024    74.792793    
      3800   0.38           0              82.772044      82.772044      0.018355498    82.772044    
      4000   0.4            0              90.492705      90.492705      0.019132101    90.492705    
      4200   0.42           0              97.421502      97.421502      0.019616349    97.421502    
      4400   0.44           0              103.51468      103.51468      0.021806044    103.51468    
      4600   0.46           0              108.69026      108.69026      0.023918044    108.69026    
      4800   0.48           0              113.14316      113.14316      0.020088694    113.14316    
      5000   0.5            0              117.90229      117.90229      0.015024392    117.90229    
      5200   0.52           0              121.17996      121.17996      0.015309067    121.17996    
      5400   0.54           0              124.46272      124.46272      0.013713032    124.46272    
      5600   0.56           0              127.21382      127.21382      0.011309601    127.21382    
      5800   0.58           0              129.74895      129.74895      0.01050677     129.74895    
      6000   0.6            0              132.12532      132.12532      0.0097721584   132.12532    
      6200   0.62           0              134.42083      134.42083      0.0076432874   134.42083    
      6400   0.64           0              136.78028      136.78028      0.0064497844   136.78028    
      6600   0.66           0              138.65819      138.65819      0.0053612766   138.65819    
      6800   0.68           0              140.47992      140.47992      0.0047558742   140.47992    
      7000   0.7            0              141.76793      141.76793      0.0072098268   141.76793    
      7200   0.72           0              142.80439      142.80439      0.0057851641   142.80439    
      7400   0.74           0              144.20556      144.20556      0.0064601282   144.20556    
      7600   0.76           0              145.24881      145.24881      0.0036556989   145.24881    
      7800   0.78           0              146.45753      146.45753      0.0040279837   146.45753    
      8000   0.8            0              147.55828      147.55828      0.004000954    147.55828    
      8200   0.82           0              148.34509      148.34509      0.0049568448   148.34509    
      8400   0.84           0              149.39865      149.39865      0.0074832491   149.39865    
      8600   0.86           0              149.7903       149.7903       0.0072554261   149.7903     
      8800   0.88           0              150.02195      150.02195      0.0064534875   150.02195    
      9000   0.9            0              150.45172      150.45172      0.0076579703   150.45172    
      9200   0.92           0              151.01814      151.01814      0.0074664965   151.01814    
      9400   0.94           0              151.54397      151.54397      0.0073663112   151.54397    
      9600   0.96           0              151.84586      151.84586      0.006846131    151.84586    
      9800   0.98           0              152.31149      152.31149      0.0085661669   152.31149    
     10000   1              0              152.27647      152.27647      0.0079497595   152.27647    
     10200   1.02           0              153.3886       153.3886       0.0067101688   153.3886     
     10400   1.04           0              153.47753      153.47753      0.0045693234   153.47753    
     10600   1.06           0              153.74337      153.74337      0.0071190636   153.74337    
     10800   1.08           0              153.89101      153.89101      0.0089666432   153.89101    
     11000   1.1            0              153.97916      153.97916      0.010347959    153.97916    
     11200   1.12           0              154.09061      154.09061      0.0072753415   154.09061    
     11400   1.14           0              154.5076       154.5076       0.0063646048   154.5076     
     11600   1.16           0              154.82745      154.82745      0.0058086779   154.82745    
     11800   1.18           0              155.18772      155.18772      0.0074094122   155.18772    
     12000   1.2            0              154.94345      154.94345      0.0083494802   154.94345    
     12200   1.22           0              155.15974      155.15974      0.0057483715   155.15974    
     12400   1.24           0              155.68011      155.68011      0.0046486682   155.68011    
     12600   1.26           0              156.03782      156.03782      0.0064036994   156.03782    
     12800   1.28           0              156.18752      156.18752      0.0068262466   156.18752    
     13000   1.3            0              156.42747      156.42747      0.0055713567   156.42747    
     13200   1.32           0              156.24925      156.24925      0.008164165    156.24925    
     13400   1.34           0              155.99664      155.99664      0.0070890949   155.99664    
     13600   1.36           0              156.16713      156.16713      0.0074920495   156.16713    
     13800   1.38           0              156.20101      156.20101      0.0083894892   156.20101    
     14000   1.4            0              156.75036      156.75036      0.007609885    156.75036    
     14200   1.42           0              156.72855      156.72855      0.0076127716   156.72855    
     14400   1.44           0              156.90152      156.90152      0.0069516165   156.90152    
     14600   1.46           0              156.99821      156.99821      0.010813333    156.99821    
     14800   1.48           0              156.68644      156.68644      0.010538917    156.68644    
     15000   1.5            0              156.50648      156.50648      0.0096407631   156.50648    
     15200   1.52           0              156.81798      156.81798      0.0085619035   156.81798    
     15400   1.54           0              156.80698      156.80698      0.010065876    156.80698    
     15600   1.56           0              156.77457      156.77457      0.009672187    156.77457    
     15800   1.58           0              156.9215       156.9215       0.007113239    156.9215     
     16000   1.6            0              156.71064      156.71064      0.0049752408   156.71064    
     16200   1.62           0              156.86669      156.86669      0.0083389854   156.86669    
     16400   1.64           0              157.26282      157.26282      0.007064263    157.26282    
     16600   1.66           0              157.06013      157.06013      0.0072647369   157.06013    
     16800   1.68           0              157.0054       157.0054       0.0049760226   157.0054     
     17000   1.7            0              156.96717      156.96717      0.0051515949   156.96717    
     17200   1.72           0              157.19613      157.19613      0.0045504261   157.19613    
     17400   1.74           0              157.1572       157.1572       0.0051794791   157.1572     
     17600   1.76           0              157.25864      157.25864      0.003519157    157.25864    
     17800   1.78           0              157.56328      157.56328      0.0044581411   157.56328    
     18000   1.8            0              157.16348      157.16348      0.0048605698   157.16348    
     18200   1.82           0              157.50922      157.50922      0.0056276068   157.50922    
     18400   1.84           0              157.8781       157.8781       0.0064802757   157.8781     
     18600   1.86           0              157.47262      157.47262      0.0052421164   157.47262    
     18800   1.88           0              157.75931      157.75931      0.008560519    157.75931    
     19000   1.9            0              157.9772       157.9772       0.0093273237   157.9772     
     19200   1.92           0              157.79525      157.79525      0.010187257    157.79525    
     19400   1.94           0              157.44827      157.44827      0.010096058    157.44827    
     19600   1.96           0              157.51276      157.51276      0.0085815277   157.51276    
     19800   1.98           0              157.49089      157.49089      0.0065690752   157.49089    
     20000   2              0              157.29091      157.29091      0.0069561401   157.29091    
     20200   2.02           0              157.61163      157.61163      0.0069985481   157.61163    
     20400   2.04           0              157.58471      157.58471      0.010719038    157.58471    
     20600   2.06           0              157.68789      157.68789      0.009647047    157.68789    
     20800   2.08           0              157.79146      157.79146      0.010496331    157.79146    
     21000   2.1            0              157.75501      157.75501      0.012256227    157.75501    
     21200   2.12           0              158.12808      158.12808      0.010584179    158.12808    
     21400   2.14           0              158.03115      158.03115      0.0076360961   158.03115    
     21600   2.16           0              157.77167      157.77167      0.0090494157   157.77167    
     21800   2.18           0              157.74959      157.74959      0.0077752285   157.74959    
     22000   2.2            0              157.86552      157.86552      0.01027534     157.86552    
     22200   2.22           0              157.65612      157.65612      0.013924657    157.65612    
     22400   2.24           0              157.08242      157.08242      0.013598843    157.08242    
     22522   2.2522         0              156.84424      156.84424      0.014237181    156.84424    
Loop time of 523.083 on 1 procs for 20000 steps with 15000 atoms

Performance: 0.330 ns/day, 72.650 hours/ns, 38.235 timesteps/s, 573.522 katom-step/s
99.9% CPU use with 1 MPI tasks x 1 OpenMP threads

MPI task timing breakdown:
Section |  min time  |  avg time  |  max time  |%varavg| %total
---------------------------------------------------------------
Pair    | 132.94     | 132.94     | 132.94     |   0.0 | 25.41
Neigh   | 0          | 0          | 0          |   0.0 |  0.00
Comm    | 1.1637     | 1.1637     | 1.1637     |   0.0 |  0.22
Output  | 0.86673    | 0.86673    | 0.86673    |   0.0 |  0.17
Modify  | 384.9      | 384.9      | 384.9      |   0.0 | 73.58
Other   |            | 3.215      |            |       |  0.61

Nlocal:          15000 ave       15000 max       15000 min
Histogram: 1 0 0 0 0 0 0 0 0 0
Nghost:            707 ave         707 max         707 min
Histogram: 1 0 0 0 0 0 0 0 0 0
Neighs:              0 ave           0 max           0 min
Histogram: 1 0 0 0 0 0 0 0 0 0
FullNghs:        90000 ave       90000 max       90000 min
Histogram: 1 0 0 0 0 0 0 0 0 0

Total # of neighbors = 90000
Ave neighs/atom = 6
Neighbor list builds = 0
Dangerous builds = 0
DYNAMICS_T245_DONE
Total wall time: 0:08:43
