LAMMPS (10 Dec 2025 - Development - patch_10Dec2025-120-ga51f9ba0e7)
OMP_NUM_THREADS environment is not set. Defaulting to 1 thread.
  using 1 OpenMP thread(s) per MPI task
Reading restart file ...
  restart file = 10 Dec 2025, LAMMPS = 10 Dec 2025
  restoring atom style spin from restart
  orthogonal box = (0 0 -1.3575) to (407.25 235.1259 1.3575)
  1 by 1 by 1 MPI processor grid
  restoring pair style hybrid/overlay from restart
  15000 atoms
  read_restart CPU = 0.004 seconds

CITE-CITE-CITE-CITE-CITE-CITE-CITE-CITE-CITE-CITE-CITE-CITE-CITE

Your simulation uses code contributions which should be cited:
- fix nve/spin command: https://doi.org/10.1016/j.jcp.2018.06.042
The log file lists these citations in BibTeX format.

CITE-CITE-CITE-CITE-CITE-CITE-CITE-CITE-CITE-CITE-CITE-CITE-CITE

Generated 0 of 0 mixed pair_coeff terms from geometric mixing rule
Neighbor list info ...
  update: every = 10 steps, delay = 20 steps, check = yes
  max neighbors/atom: 2000, page size: 100000
  master list distance cutoff = 3.558
  ghost atom cutoff = 3.558
  binsize = 1.779, bins = 229 133 2
  3 neighbor lists, perpetual/occasional/extra = 3 0 0
  (1) pair spin/exchange, perpetual
      attributes: full, newton on
      pair build: full/bin/atomonly
      stencil: full/bin/3d
      bin: standard
  (2) pair spin/dmi, perpetual, copy from (1)
      attributes: full, newton on
      pair build: copy
      stencil: none
      bin: none
  (3) pair spin/magelec, perpetual, copy from (1)
      attributes: full, newton on
      pair build: copy
      stencil: none
      bin: none
WARNING: Dump 1 includes no atom IDs and is not sorted by ID. This may complicate post-processing tasks or visualization (src/dump.cpp:220)
Setting up Verlet run ...
  Unit style    : metal
  Current step  : 2522
  Time step     : 0.0001
Per MPI rank memory allocation (min/avg/max) = 6.591 | 6.591 | 6.591 Mbytes
   Step          Time           Temp          PotEng         TotEng      c_out_mag[4]   c_out_mag[5] 
      2522   0.2522         0             -1.0275171     -1.0275171      0.030922721   -1.0275171    
      2600   0.26           0              5.7647349      5.7647349      0.030494449    5.7647349    
      2800   0.28           0              21.326478      21.326478      0.028663942    21.326478    
      3000   0.3            0              34.443386      34.443386      0.028112172    34.443386    
      3200   0.32           0              45.57998       45.57998       0.026120609    45.57998     
      3400   0.34           0              55.267668      55.267668      0.025382278    55.267668    
      3600   0.36           0              63.8622        63.8622        0.025064235    63.8622      
      3800   0.38           0              71.694168      71.694168      0.025739258    71.694168    
      4000   0.4            0              78.581495      78.581495      0.025482564    78.581495    
      4200   0.42           0              85.802401      85.802401      0.025883618    85.802401    
      4400   0.44           0              90.733166      90.733166      0.024397815    90.733166    
      4600   0.46           0              95.72104       95.72104       0.021059513    95.72104     
      4800   0.48           0              100.73189      100.73189      0.021820158    100.73189    
      5000   0.5            0              104.82589      104.82589      0.019972535    104.82589    
      5200   0.52           0              108.77498      108.77498      0.020673019    108.77498    
      5400   0.54           0              112.13837      112.13837      0.019539718    112.13837    
      5600   0.56           0              115.72639      115.72639      0.020708822    115.72639    
      5800   0.58           0              118.54102      118.54102      0.018572239    118.54102    
      6000   0.6            0              120.66185      120.66185      0.0176792      120.66185    
      6200   0.62           0              122.96569      122.96569      0.018219276    122.96569    
      6400   0.64           0              125.24862      125.24862      0.01823883     125.24862    
      6600   0.66           0              127.46508      127.46508      0.0185226      127.46508    
      6800   0.68           0              129.22587      129.22587      0.018496233    129.22587    
      7000   0.7            0              131.33536      131.33536      0.017037965    131.33536    
      7200   0.72           0              133.07021      133.07021      0.017834585    133.07021    
      7400   0.74           0              134.7267       134.7267       0.015911762    134.7267     
      7600   0.76           0              136.555        136.555        0.013809217    136.555      
      7800   0.78           0              137.7244       137.7244       0.012543619    137.7244     
      8000   0.8            0              138.82994      138.82994      0.011768423    138.82994    
      8200   0.82           0              139.88674      139.88674      0.0096409677   139.88674    
      8400   0.84           0              140.7682       140.7682       0.0098021161   140.7682     
      8600   0.86           0              141.95255      141.95255      0.0081549876   141.95255    
      8800   0.88           0              142.58605      142.58605      0.0085647082   142.58605    
      9000   0.9            0              143.22864      143.22864      0.0088893741   143.22864    
      9200   0.92           0              144.05221      144.05221      0.0087799293   144.05221    
      9400   0.94           0              144.69831      144.69831      0.0067512602   144.69831    
      9600   0.96           0              145.45137      145.45137      0.0055994804   145.45137    
      9800   0.98           0              146.43835      146.43835      0.0053763338   146.43835    
     10000   1              0              146.97973      146.97973      0.0056110815   146.97973    
     10200   1.02           0              147.46534      147.46534      0.0050763265   147.46534    
     10400   1.04           0              147.9951       147.9951       0.0060990308   147.9951     
     10600   1.06           0              148.35937      148.35937      0.0045273958   148.35937    
     10800   1.08           0              148.71892      148.71892      0.0030106674   148.71892    
     11000   1.1            0              149.29253      149.29253      0.0019107477   149.29253    
     11200   1.12           0              149.74927      149.74927      0.0035898246   149.74927    
     11400   1.14           0              149.99956      149.99956      0.0021191492   149.99956    
     11600   1.16           0              149.7676       149.7676       0.0022770875   149.7676     
     11800   1.18           0              149.80078      149.80078      0.0059710989   149.80078    
     12000   1.2            0              149.93597      149.93597      0.00612028     149.93597    
     12200   1.22           0              150.34472      150.34472      0.0079285954   150.34472    
     12400   1.24           0              150.4868       150.4868       0.0065670829   150.4868     
     12600   1.26           0              150.80498      150.80498      0.0043668899   150.80498    
     12800   1.28           0              150.82886      150.82886      0.0061956451   150.82886    
     13000   1.3            0              150.86589      150.86589      0.009393742    150.86589    
     13200   1.32           0              150.83589      150.83589      0.012529473    150.83589    
     13400   1.34           0              151.16623      151.16623      0.012157214    151.16623    
     13600   1.36           0              151.32483      151.32483      0.011391384    151.32483    
     13800   1.38           0              151.54831      151.54831      0.0095147989   151.54831    
     14000   1.4            0              151.6924       151.6924       0.0066669904   151.6924     
     14200   1.42           0              151.70185      151.70185      0.0061182202   151.70185    
     14400   1.44           0              152.07981      152.07981      0.0058760186   152.07981    
     14600   1.46           0              152.72969      152.72969      0.0072886256   152.72969    
     14800   1.48           0              152.81349      152.81349      0.0058944262   152.81349    
     15000   1.5            0              152.9694       152.9694       0.0065916444   152.9694     
     15200   1.52           0              153.43686      153.43686      0.0059425738   153.43686    
     15400   1.54           0              153.22499      153.22499      0.0065304676   153.22499    
     15600   1.56           0              153.53264      153.53264      0.0062528149   153.53264    
     15800   1.58           0              153.4402       153.4402       0.0038929353   153.4402     
     16000   1.6            0              153.19299      153.19299      0.0030543344   153.19299    
     16200   1.62           0              153.09892      153.09892      0.0025733082   153.09892    
     16400   1.64           0              153.03111      153.03111      0.0055154334   153.03111    
     16600   1.66           0              153.38146      153.38146      0.0066742204   153.38146    
     16800   1.68           0              153.58062      153.58062      0.0063297381   153.58062    
     17000   1.7            0              153.50319      153.50319      0.0084976664   153.50319    
     17200   1.72           0              153.09561      153.09561      0.007195758    153.09561    
     17400   1.74           0              153.2055       153.2055       0.0053026623   153.2055     
     17600   1.76           0              153.26939      153.26939      0.0049984621   153.26939    
     17800   1.78           0              153.23841      153.23841      0.007189426    153.23841    
     18000   1.8            0              153.00021      153.00021      0.0066695069   153.00021    
     18200   1.82           0              152.82578      152.82578      0.00837179     152.82578    
     18400   1.84           0              152.94126      152.94126      0.0082385134   152.94126    
     18600   1.86           0              153.15449      153.15449      0.0088926434   153.15449    
     18800   1.88           0              153.09318      153.09318      0.010094535    153.09318    
     19000   1.9            0              152.92352      152.92352      0.0097674404   152.92352    
     19200   1.92           0              152.81603      152.81603      0.012714613    152.81603    
     19400   1.94           0              152.66506      152.66506      0.01189299     152.66506    
     19600   1.96           0              152.88638      152.88638      0.010237614    152.88638    
     19800   1.98           0              153.26264      153.26264      0.011012244    153.26264    
     20000   2              0              152.94684      152.94684      0.012425019    152.94684    
     20200   2.02           0              153.10349      153.10349      0.010489457    153.10349    
     20400   2.04           0              153.46848      153.46848      0.010738269    153.46848    
     20600   2.06           0              153.5551       153.5551       0.011522331    153.5551     
     20800   2.08           0              153.97587      153.97587      0.0094398356   153.97587    
     21000   2.1            0              153.3317       153.3317       0.01280981     153.3317     
     21200   2.12           0              153.54487      153.54487      0.01355295     153.54487    
     21400   2.14           0              153.54845      153.54845      0.010244148    153.54845    
     21600   2.16           0              153.56729      153.56729      0.0082417979   153.56729    
     21800   2.18           0              153.86784      153.86784      0.0091246517   153.86784    
     22000   2.2            0              154.01477      154.01477      0.0084950959   154.01477    
     22200   2.22           0              154.26947      154.26947      0.0076347548   154.26947    
     22400   2.24           0              154.01326      154.01326      0.0070555677   154.01326    
     22522   2.2522         0              153.9553       153.9553       0.006441634    153.9553     
Loop time of 572.897 on 1 procs for 20000 steps with 15000 atoms

Performance: 0.302 ns/day, 79.569 hours/ns, 34.910 timesteps/s, 523.654 katom-step/s
100.0% CPU use with 1 MPI tasks x 1 OpenMP threads

MPI task timing breakdown:
Section |  min time  |  avg time  |  max time  |%varavg| %total
---------------------------------------------------------------
Pair    | 145.9      | 145.9      | 145.9      |   0.0 | 25.47
Neigh   | 0          | 0          | 0          |   0.0 |  0.00
Comm    | 0.50699    | 0.50699    | 0.50699    |   0.0 |  0.09
Output  | 0.90668    | 0.90668    | 0.90668    |   0.0 |  0.16
Modify  | 424.16     | 424.16     | 424.16     |   0.0 | 74.04
Other   |            | 1.427      |            |       |  0.25

Nlocal:          15000 ave       15000 max       15000 min
Histogram: 1 0 0 0 0 0 0 0 0 0
Nghost:            707 ave         707 max         707 min
Histogram: 1 0 0 0 0 0 0 0 0 0
Neighs:              0 ave           0 max           0 min
Histogram: 1 0 0 0 0 0 0 0 0 0
FullNghs:        90000 ave       90000 max       90000 min
Histogram: 1 0 0 0 0 0 0 0 0 0

Total # of neighbors = 90000
Ave neighs/atom = 6
Neighbor list builds = 0
Dangerous builds = 0
DYNAMICS_T205_DONE
Total wall time: 0:09:32
