LAMMPS (10 Dec 2025 - Development - patch_10Dec2025-120-ga51f9ba0e7)
OMP_NUM_THREADS environment is not set. Defaulting to 1 thread.
  using 1 OpenMP thread(s) per MPI task
# Finite-T Langevin spin-dynamics stage for mp-754090 (Li4Fe2TeWO12). D is now DFT-derived
# (paramrudra jobs 49186/49187, constrained noncollinear+SOC canting probe) -- see
# in.mp754090_effective.lammps for the full J and D derivation, and the caveat that D's
# direction (y, in the arbitrary lab frame used for the probe) is a resolved-but-not-fully-3D
# DMI component, not a complete DMI vector fit. Anisotropy remains unprobed (set to 0).
#
# Run via run_scan_parallel_mp754090.sh, one temperature/seed per invocation:
#   -var runtemp <K> -var runseed <int>
#
# Same LAMMPS-build workaround as in.pdfeir_dynamics.lammps: hybrid/overlay segfaults with
# exactly 2 spin substyles on this build, padded to 3 with a zero-strength spin/magelec term.

units           metal
atom_style      spin
dimension       3
boundary        p p p
atom_modify     map array

read_restart    restart.mp754090_T0.equil
Reading restart file ...
  restart file = 10 Dec 2025, LAMMPS = 10 Dec 2025
  restoring atom style spin from restart
  triclinic box = (0 0 0) to (86.604109 72.44143 33.758371) with tilt (47.827887 47.809739 49.151162)
WARNING: Triclinic box skew is large. LAMMPS will run inefficiently. (src/domain.cpp:221)
  1 by 1 by 1 MPI processor grid
  restoring pair style hybrid/overlay from restart
  2048 atoms
  read_restart CPU = 0.001 seconds

variable        j_eff_eV equal 0.012058385
variable        d_shell equal 5.132075
variable        exch_a equal v_j_eff_eV*2.718281828/4.0
variable        rc_exch equal 5.25
variable        d_eV equal 0.00019324
variable        rc_dmi equal 5.25

pair_style      hybrid/overlay spin/exchange ${rc_exch} spin/dmi ${rc_dmi} spin/magelec ${rc_exch}
pair_style      hybrid/overlay spin/exchange 5.25 spin/dmi ${rc_dmi} spin/magelec ${rc_exch}
pair_style      hybrid/overlay spin/exchange 5.25 spin/dmi 5.25 spin/magelec ${rc_exch}
pair_style      hybrid/overlay spin/exchange 5.25 spin/dmi 5.25 spin/magelec 5.25
pair_coeff      * * spin/exchange exchange ${rc_exch} ${exch_a} 0.0 ${d_shell} offset yes
pair_coeff      * * spin/exchange exchange 5.25 ${exch_a} 0.0 ${d_shell} offset yes
pair_coeff      * * spin/exchange exchange 5.25 0.00819452220513194 0.0 ${d_shell} offset yes
pair_coeff      * * spin/exchange exchange 5.25 0.00819452220513194 0.0 5.132075 offset yes
pair_coeff      * * spin/dmi dmi ${rc_dmi} ${d_eV} 0.0 1.0 0.0
pair_coeff      * * spin/dmi dmi 5.25 ${d_eV} 0.0 1.0 0.0
pair_coeff      * * spin/dmi dmi 5.25 0.00019324 0.0 1.0 0.0
pair_coeff      * * spin/magelec magelec ${rc_exch} 0.0 1.0 1.0 1.0   # zero strength: segfault workaround only
pair_coeff      * * spin/magelec magelec 5.25 0.0 1.0 1.0 1.0   

neighbor        0.3 bin
neigh_modify    every 10 check yes delay 20

fix             1 all precession/spin zeeman 0.0 0.0 0.0 1.0
fix_modify      1 energy yes
fix             2 all langevin/spin ${runtemp} 0.05 ${runseed}
fix             2 all langevin/spin 400 0.05 ${runseed}
fix             2 all langevin/spin 400 0.05 21
fix             3 all nve/spin lattice frozen

timestep        0.0001

compute         out_mag all spin
compute         outsp all property/atom spx spy spz sp
thermo_style    custom step time temp pe etotal c_out_mag[4] c_out_mag[5]
thermo          200

dump            1 all custom 500 dump_mp754090_T${runtemp}_s${runseed}.lammpstrj type x y z c_outsp[1] c_outsp[2] c_outsp[3]
dump            1 all custom 500 dump_mp754090_T400_s${runseed}.lammpstrj type x y z c_outsp[1] c_outsp[2] c_outsp[3]
dump            1 all custom 500 dump_mp754090_T400_s21.lammpstrj type x y z c_outsp[1] c_outsp[2] c_outsp[3]

# Coarse first pass -- 20k steps @ dt=0.0001 ps = 2 ps, same length as pdfeir's first pass.
run             20000

CITE-CITE-CITE-CITE-CITE-CITE-CITE-CITE-CITE-CITE-CITE-CITE-CITE

Your simulation uses code contributions which should be cited:

- fix nve/spin command: https://doi.org/10.1016/j.jcp.2018.06.042

@article{tranchida2018massively,
title={Massively Parallel Symplectic Algorithm for Coupled Magnetic Spin    Dynamics and Molecular Dynamics},
author={Tranchida, J and Plimpton, S J and Thibaudeau, P and Thompson, A P},
journal={Journal of Computational Physics},
volume={372},
pages={406--425},
year={2018},
publisher={Elsevier}
doi={10.1016/j.jcp.2018.06.042}
}

CITE-CITE-CITE-CITE-CITE-CITE-CITE-CITE-CITE-CITE-CITE-CITE-CITE

Generated 0 of 0 mixed pair_coeff terms from geometric mixing rule
Neighbor list info ...
  update: every = 10 steps, delay = 20 steps, check = yes
  max neighbors/atom: 2000, page size: 100000
  master list distance cutoff = 5.55
  ghost atom cutoff = 5.55
  binsize = 2.775, bins = 66 44 13
  3 neighbor lists, perpetual/occasional/extra = 3 0 0
  (1) pair spin/exchange, perpetual
      attributes: full, newton on
      pair build: full/bin/atomonly
      stencil: full/bin/3d
      bin: standard
  (2) pair spin/dmi, perpetual, copy from (1)
      attributes: full, newton on
      pair build: copy
      stencil: none
      bin: none
  (3) pair spin/magelec, perpetual, copy from (1)
      attributes: full, newton on
      pair build: copy
      stencil: none
      bin: none
WARNING: Dump 1 includes no atom IDs and is not sorted by ID. This may complicate post-processing tasks or visualization (src/dump.cpp:220)
Per MPI rank memory allocation (min/avg/max) = 5.919 | 5.919 | 5.919 Mbytes
   Step          Time           Temp          PotEng         TotEng      c_out_mag[4]   c_out_mag[5] 
       511   0.0511         0             -4.2520525e-08 -4.2520525e-08  0.20312895    -4.2520525e-08
       600   0.06           0              6.2855371      6.2855371      0.19292723     6.2855371    
       800   0.08           0              17.135707      17.135707      0.17867659     17.135707    
      1000   0.1            0              24.862527      24.862527      0.16823171     24.862527    
      1200   0.12           0              30.913682      30.913682      0.16014475     30.913682    
      1400   0.14           0              35.043865      35.043865      0.15309829     35.043865    
      1600   0.16           0              39.10024       39.10024       0.13632024     39.10024     
      1800   0.18           0              41.745724      41.745724      0.12847566     41.745724    
      2000   0.2            0              43.521268      43.521268      0.11571216     43.521268    
      2200   0.22           0              45.361243      45.361243      0.11351927     45.361243    
      2400   0.24           0              48.261163      48.261163      0.10244085     48.261163    
      2600   0.26           0              49.829924      49.829924      0.090463678    49.829924    
      2800   0.28           0              51.57321       51.57321       0.086042928    51.57321     
      3000   0.3            0              53.265235      53.265235      0.075873533    53.265235    
      3200   0.32           0              54.621831      54.621831      0.077514103    54.621831    
      3400   0.34           0              55.165573      55.165573      0.0752342      55.165573    
      3600   0.36           0              55.293067      55.293067      0.073492265    55.293067    
      3800   0.38           0              56.215282      56.215282      0.07264581     56.215282    
      4000   0.4            0              55.646545      55.646545      0.082548568    55.646545    
      4200   0.42           0              56.845484      56.845484      0.083720139    56.845484    
      4400   0.44           0              57.979633      57.979633      0.081244292    57.979633    
      4600   0.46           0              58.236833      58.236833      0.078752765    58.236833    
      4800   0.48           0              59.093978      59.093978      0.067353477    59.093978    
      5000   0.5            0              58.270446      58.270446      0.063499855    58.270446    
      5200   0.52           0              59.029181      59.029181      0.057078501    59.029181    
      5400   0.54           0              58.917692      58.917692      0.057558501    58.917692    
      5600   0.56           0              59.35195       59.35195       0.057387668    59.35195     
      5800   0.58           0              59.501388      59.501388      0.061301613    59.501388    
      6000   0.6            0              59.316379      59.316379      0.064985262    59.316379    
      6200   0.62           0              58.943886      58.943886      0.053024361    58.943886    
      6400   0.64           0              58.867416      58.867416      0.053349615    58.867416    
      6600   0.66           0              59.682991      59.682991      0.054131514    59.682991    
      6800   0.68           0              59.949572      59.949572      0.056132625    59.949572    
      7000   0.7            0              60.180723      60.180723      0.055518346    60.180723    
      7200   0.72           0              60.475327      60.475327      0.055389498    60.475327    
      7400   0.74           0              60.548273      60.548273      0.056696793    60.548273    
      7600   0.76           0              60.725038      60.725038      0.059139727    60.725038    
      7800   0.78           0              60.339734      60.339734      0.051210994    60.339734    
      8000   0.8            0              60.509759      60.509759      0.049057503    60.509759    
      8200   0.82           0              61.198263      61.198263      0.037861331    61.198263    
      8400   0.84           0              62.185474      62.185474      0.034500086    62.185474    
      8600   0.86           0              62.111462      62.111462      0.040882834    62.111462    
      8800   0.88           0              62.082102      62.082102      0.041904428    62.082102    
      9000   0.9            0              62.073807      62.073807      0.038855342    62.073807    
      9200   0.92           0              62.062699      62.062699      0.046944115    62.062699    
      9400   0.94           0              62.594637      62.594637      0.054333523    62.594637    
      9600   0.96           0              62.498111      62.498111      0.043351051    62.498111    
      9800   0.98           0              62.270879      62.270879      0.044984434    62.270879    
     10000   1              0              61.880341      61.880341      0.047243126    61.880341    
     10200   1.02           0              62.375875      62.375875      0.05170249     62.375875    
     10400   1.04           0              62.657704      62.657704      0.045567796    62.657704    
     10600   1.06           0              62.834637      62.834637      0.048023494    62.834637    
     10800   1.08           0              62.672947      62.672947      0.04687278     62.672947    
     11000   1.1            0              62.673003      62.673003      0.039753058    62.673003    
     11200   1.12           0              62.973415      62.973415      0.032098222    62.973415    
     11400   1.14           0              63.136196      63.136196      0.030457616    63.136196    
     11600   1.16           0              62.883714      62.883714      0.029852949    62.883714    
     11800   1.18           0              62.27697       62.27697       0.037924039    62.27697     
     12000   1.2            0              62.159243      62.159243      0.043035233    62.159243    
     12200   1.22           0              62.571145      62.571145      0.042193777    62.571145    
     12400   1.24           0              61.695427      61.695427      0.044213507    61.695427    
     12600   1.26           0              61.724423      61.724423      0.040968831    61.724423    
     12800   1.28           0              62.117249      62.117249      0.038771743    62.117249    
     13000   1.3            0              62.326461      62.326461      0.044999896    62.326461    
     13200   1.32           0              63.045185      63.045185      0.041835806    63.045185    
     13400   1.34           0              62.824937      62.824937      0.035738275    62.824937    
     13600   1.36           0              63.16964       63.16964       0.043866784    63.16964     
     13800   1.38           0              62.168635      62.168635      0.044236896    62.168635    
     14000   1.4            0              62.315529      62.315529      0.054204759    62.315529    
     14200   1.42           0              62.677622      62.677622      0.053909628    62.677622    
     14400   1.44           0              62.687868      62.687868      0.043236642    62.687868    
     14600   1.46           0              62.499788      62.499788      0.04574151     62.499788    
     14800   1.48           0              62.665259      62.665259      0.061399881    62.665259    
     15000   1.5            0              62.749097      62.749097      0.061211632    62.749097    
     15200   1.52           0              62.472307      62.472307      0.062820333    62.472307    
     15400   1.54           0              62.519956      62.519956      0.056762157    62.519956    
     15600   1.56           0              62.395494      62.395494      0.06017388     62.395494    
     15800   1.58           0              62.668714      62.668714      0.062164741    62.668714    
     16000   1.6            0              62.17321       62.17321       0.059093567    62.17321     
     16200   1.62           0              62.101743      62.101743      0.060111716    62.101743    
     16400   1.64           0              62.916656      62.916656      0.061092074    62.916656    
     16600   1.66           0              62.59288       62.59288       0.06516601     62.59288     
     16800   1.68           0              62.848477      62.848477      0.058465136    62.848477    
     17000   1.7            0              63.212575      63.212575      0.049763047    63.212575    
     17200   1.72           0              63.014894      63.014894      0.044528965    63.014894    
     17400   1.74           0              63.419605      63.419605      0.041020804    63.419605    
     17600   1.76           0              63.962381      63.962381      0.047145575    63.962381    
     17800   1.78           0              63.854066      63.854066      0.048618895    63.854066    
     18000   1.8            0              64.069254      64.069254      0.046307404    64.069254    
     18200   1.82           0              63.640279      63.640279      0.041869982    63.640279    
     18400   1.84           0              63.195254      63.195254      0.044003604    63.195254    
     18600   1.86           0              63.56775       63.56775       0.043817747    63.56775     
     18800   1.88           0              63.030131      63.030131      0.052238292    63.030131    
     19000   1.9            0              63.020978      63.020978      0.049662502    63.020978    
     19200   1.92           0              62.159102      62.159102      0.047755985    62.159102    
     19400   1.94           0              62.87622       62.87622       0.048091816    62.87622     
     19600   1.96           0              62.936532      62.936532      0.040838227    62.936532    
     19800   1.98           0              63.15083       63.15083       0.032908184    63.15083     
     20000   2              0              63.744654      63.744654      0.036121732    63.744654    
     20200   2.02           0              63.205593      63.205593      0.032223987    63.205593    
     20400   2.04           0              63.468379      63.468379      0.030490795    63.468379    
     20511   2.0511         0              63.678593      63.678593      0.027269533    63.678593    
Loop time of 80.2879 on 1 procs for 20000 steps with 2048 atoms

Performance: 2.152 ns/day, 11.151 hours/ns, 249.104 timesteps/s, 510.164 katom-step/s
100.0% CPU use with 1 MPI tasks x 1 OpenMP threads

MPI task timing breakdown:
Section |  min time  |  avg time  |  max time  |%varavg| %total
---------------------------------------------------------------
Pair    | 21.113     | 21.113     | 21.113     |   0.0 | 26.30
Neigh   | 0          | 0          | 0          |   0.0 |  0.00
Comm    | 0.69536    | 0.69536    | 0.69536    |   0.0 |  0.87
Output  | 0.11515    | 0.11515    | 0.11515    |   0.0 |  0.14
Modify  | 58.275     | 58.275     | 58.275     |   0.0 | 72.58
Other   |            | 0.08917    |            |       |  0.11

Nlocal:           2048 ave        2048 max        2048 min
Histogram: 1 0 0 0 0 0 0 0 0 0
Nghost:           1732 ave        1732 max        1732 min
Histogram: 1 0 0 0 0 0 0 0 0 0
Neighs:              0 ave           0 max           0 min
Histogram: 1 0 0 0 0 0 0 0 0 0
FullNghs:        24576 ave       24576 max       24576 min
Histogram: 1 0 0 0 0 0 0 0 0 0

Total # of neighbors = 24576
Ave neighs/atom = 12
Neighbor list builds = 0
Dangerous builds = 0

print           "DYNAMICS_T${runtemp}_DONE"
DYNAMICS_T400_DONE
Total wall time: 0:01:20
