LAMMPS (10 Dec 2025 - Development - patch_10Dec2025-120-ga51f9ba0e7)
OMP_NUM_THREADS environment is not set. Defaulting to 1 thread.
  using 1 OpenMP thread(s) per MPI task
# Finite-T Langevin spin-dynamics stage for mp-754090 (Li4Fe2TeWO12). D is now DFT-derived
# (paramrudra jobs 49186/49187, constrained noncollinear+SOC canting probe) -- see
# in.mp754090_effective.lammps for the full J and D derivation, and the caveat that D's
# direction (y, in the arbitrary lab frame used for the probe) is a resolved-but-not-fully-3D
# DMI component, not a complete DMI vector fit. Anisotropy remains unprobed (set to 0).
#
# Run via run_scan_parallel_mp754090.sh, one temperature/seed per invocation:
#   -var runtemp <K> -var runseed <int>
#
# Same LAMMPS-build workaround as in.pdfeir_dynamics.lammps: hybrid/overlay segfaults with
# exactly 2 spin substyles on this build, padded to 3 with a zero-strength spin/magelec term.

units           metal
atom_style      spin
dimension       3
boundary        p p p
atom_modify     map array

read_restart    restart.mp754090_T0.equil
Reading restart file ...
  restart file = 10 Dec 2025, LAMMPS = 10 Dec 2025
  restoring atom style spin from restart
  triclinic box = (0 0 0) to (86.604109 72.44143 33.758371) with tilt (47.827887 47.809739 49.151162)
WARNING: Triclinic box skew is large. LAMMPS will run inefficiently. (src/domain.cpp:221)
  1 by 1 by 1 MPI processor grid
  restoring pair style hybrid/overlay from restart
  2048 atoms
  read_restart CPU = 0.002 seconds

variable        j_eff_eV equal 0.012058385
variable        d_shell equal 5.132075
variable        exch_a equal v_j_eff_eV*2.718281828/4.0
variable        rc_exch equal 5.25
variable        d_eV equal 0.00019324
variable        rc_dmi equal 5.25

pair_style      hybrid/overlay spin/exchange ${rc_exch} spin/dmi ${rc_dmi} spin/magelec ${rc_exch}
pair_style      hybrid/overlay spin/exchange 5.25 spin/dmi ${rc_dmi} spin/magelec ${rc_exch}
pair_style      hybrid/overlay spin/exchange 5.25 spin/dmi 5.25 spin/magelec ${rc_exch}
pair_style      hybrid/overlay spin/exchange 5.25 spin/dmi 5.25 spin/magelec 5.25
pair_coeff      * * spin/exchange exchange ${rc_exch} ${exch_a} 0.0 ${d_shell} offset yes
pair_coeff      * * spin/exchange exchange 5.25 ${exch_a} 0.0 ${d_shell} offset yes
pair_coeff      * * spin/exchange exchange 5.25 0.00819452220513194 0.0 ${d_shell} offset yes
pair_coeff      * * spin/exchange exchange 5.25 0.00819452220513194 0.0 5.132075 offset yes
pair_coeff      * * spin/dmi dmi ${rc_dmi} ${d_eV} 0.0 1.0 0.0
pair_coeff      * * spin/dmi dmi 5.25 ${d_eV} 0.0 1.0 0.0
pair_coeff      * * spin/dmi dmi 5.25 0.00019324 0.0 1.0 0.0
pair_coeff      * * spin/magelec magelec ${rc_exch} 0.0 1.0 1.0 1.0   # zero strength: segfault workaround only
pair_coeff      * * spin/magelec magelec 5.25 0.0 1.0 1.0 1.0   

neighbor        0.3 bin
neigh_modify    every 10 check yes delay 20

fix             1 all precession/spin zeeman 0.0 0.0 0.0 1.0
fix_modify      1 energy yes
fix             2 all langevin/spin ${runtemp} 0.05 ${runseed}
fix             2 all langevin/spin 300 0.05 ${runseed}
fix             2 all langevin/spin 300 0.05 21
fix             3 all nve/spin lattice frozen

timestep        0.0001

compute         out_mag all spin
compute         outsp all property/atom spx spy spz sp
thermo_style    custom step time temp pe etotal c_out_mag[4] c_out_mag[5]
thermo          200

dump            1 all custom 500 dump_mp754090_T${runtemp}_s${runseed}.lammpstrj type x y z c_outsp[1] c_outsp[2] c_outsp[3]
dump            1 all custom 500 dump_mp754090_T300_s${runseed}.lammpstrj type x y z c_outsp[1] c_outsp[2] c_outsp[3]
dump            1 all custom 500 dump_mp754090_T300_s21.lammpstrj type x y z c_outsp[1] c_outsp[2] c_outsp[3]

# Coarse first pass -- 20k steps @ dt=0.0001 ps = 2 ps, same length as pdfeir's first pass.
run             20000

CITE-CITE-CITE-CITE-CITE-CITE-CITE-CITE-CITE-CITE-CITE-CITE-CITE

Your simulation uses code contributions which should be cited:

- fix nve/spin command: https://doi.org/10.1016/j.jcp.2018.06.042

@article{tranchida2018massively,
title={Massively Parallel Symplectic Algorithm for Coupled Magnetic Spin    Dynamics and Molecular Dynamics},
author={Tranchida, J and Plimpton, S J and Thibaudeau, P and Thompson, A P},
journal={Journal of Computational Physics},
volume={372},
pages={406--425},
year={2018},
publisher={Elsevier}
doi={10.1016/j.jcp.2018.06.042}
}

CITE-CITE-CITE-CITE-CITE-CITE-CITE-CITE-CITE-CITE-CITE-CITE-CITE

Generated 0 of 0 mixed pair_coeff terms from geometric mixing rule
Neighbor list info ...
  update: every = 10 steps, delay = 20 steps, check = yes
  max neighbors/atom: 2000, page size: 100000
  master list distance cutoff = 5.55
  ghost atom cutoff = 5.55
  binsize = 2.775, bins = 66 44 13
  3 neighbor lists, perpetual/occasional/extra = 3 0 0
  (1) pair spin/exchange, perpetual
      attributes: full, newton on
      pair build: full/bin/atomonly
      stencil: full/bin/3d
      bin: standard
  (2) pair spin/dmi, perpetual, copy from (1)
      attributes: full, newton on
      pair build: copy
      stencil: none
      bin: none
  (3) pair spin/magelec, perpetual, copy from (1)
      attributes: full, newton on
      pair build: copy
      stencil: none
      bin: none
WARNING: Dump 1 includes no atom IDs and is not sorted by ID. This may complicate post-processing tasks or visualization (src/dump.cpp:220)
Per MPI rank memory allocation (min/avg/max) = 5.919 | 5.919 | 5.919 Mbytes
   Step          Time           Temp          PotEng         TotEng      c_out_mag[4]   c_out_mag[5] 
       511   0.0511         0             -4.2520525e-08 -4.2520525e-08  0.20312895    -4.2520525e-08
       600   0.06           0              4.7599932      4.7599932      0.19511554     4.7599932    
       800   0.08           0              13.218098      13.218098      0.18481123     13.218098    
      1000   0.1            0              19.409914      19.409914      0.17708177     19.409914    
      1200   0.12           0              24.285728      24.285728      0.17200662     24.285728    
      1400   0.14           0              27.609678      27.609678      0.16728571     27.609678    
      1600   0.16           0              31.337493      31.337493      0.15438232     31.337493    
      1800   0.18           0              33.457988      33.457988      0.14624924     33.457988    
      2000   0.2            0              35.327691      35.327691      0.14129457     35.327691    
      2200   0.22           0              37.035946      37.035946      0.13851459     37.035946    
      2400   0.24           0              38.692014      38.692014      0.13371543     38.692014    
      2600   0.26           0              39.864115      39.864115      0.12554345     39.864115    
      2800   0.28           0              41.472338      41.472338      0.12153098     41.472338    
      3000   0.3            0              42.138699      42.138699      0.1159784      42.138699    
      3200   0.32           0              44.106621      44.106621      0.11228767     44.106621    
      3400   0.34           0              44.532855      44.532855      0.10799549     44.532855    
      3600   0.36           0              44.858324      44.858324      0.10516126     44.858324    
      3800   0.38           0              46.406406      46.406406      0.09619356     46.406406    
      4000   0.4            0              46.663575      46.663575      0.097668494    46.663575    
      4200   0.42           0              47.294779      47.294779      0.10607002     47.294779    
      4400   0.44           0              47.181803      47.181803      0.10432018     47.181803    
      4600   0.46           0              48.092019      48.092019      0.10438717     48.092019    
      4800   0.48           0              48.992968      48.992968      0.099158618    48.992968    
      5000   0.5            0              49.421026      49.421026      0.10006499     49.421026    
      5200   0.52           0              49.479379      49.479379      0.091587821    49.479379    
      5400   0.54           0              49.93642       49.93642       0.089044978    49.93642     
      5600   0.56           0              50.818957      50.818957      0.083076681    50.818957    
      5800   0.58           0              51.323562      51.323562      0.087471778    51.323562    
      6000   0.6            0              51.274859      51.274859      0.084280205    51.274859    
      6200   0.62           0              51.313513      51.313513      0.069485487    51.313513    
      6400   0.64           0              51.910653      51.910653      0.06760278     51.910653    
      6600   0.66           0              52.828985      52.828985      0.074545507    52.828985    
      6800   0.68           0              53.692437      53.692437      0.072742528    53.692437    
      7000   0.7            0              53.30543       53.30543       0.064260325    53.30543     
      7200   0.72           0              53.336255      53.336255      0.060926638    53.336255    
      7400   0.74           0              53.386333      53.386333      0.062238717    53.386333    
      7600   0.76           0              53.315277      53.315277      0.053779761    53.315277    
      7800   0.78           0              53.105325      53.105325      0.046350056    53.105325    
      8000   0.8            0              53.309166      53.309166      0.048004268    53.309166    
      8200   0.82           0              53.020513      53.020513      0.050067055    53.020513    
      8400   0.84           0              53.135594      53.135594      0.048169638    53.135594    
      8600   0.86           0              53.352718      53.352718      0.039879865    53.352718    
      8800   0.88           0              53.580377      53.580377      0.030310324    53.580377    
      9000   0.9            0              54.678497      54.678497      0.028409329    54.678497    
      9200   0.92           0              54.893504      54.893504      0.025915657    54.893504    
      9400   0.94           0              54.554436      54.554436      0.029437423    54.554436    
      9600   0.96           0              55.042056      55.042056      0.027322016    55.042056    
      9800   0.98           0              55.777498      55.777498      0.027244266    55.777498    
     10000   1              0              55.640298      55.640298      0.029941248    55.640298    
     10200   1.02           0              55.535511      55.535511      0.034945413    55.535511    
     10400   1.04           0              56.134802      56.134802      0.038724162    56.134802    
     10600   1.06           0              55.741106      55.741106      0.035129607    55.741106    
     10800   1.08           0              56.410249      56.410249      0.026365884    56.410249    
     11000   1.1            0              56.73702       56.73702       0.024026346    56.73702     
     11200   1.12           0              57.540073      57.540073      0.027500693    57.540073    
     11400   1.14           0              57.214688      57.214688      0.016707546    57.214688    
     11600   1.16           0              56.79106       56.79106       0.017299123    56.79106     
     11800   1.18           0              56.782451      56.782451      0.01005745     56.782451    
     12000   1.2            0              56.677968      56.677968      0.015948994    56.677968    
     12200   1.22           0              56.47347       56.47347       0.0212967      56.47347     
     12400   1.24           0              56.786039      56.786039      0.021139248    56.786039    
     12600   1.26           0              56.7361        56.7361        0.019217397    56.7361      
     12800   1.28           0              56.845908      56.845908      0.026976423    56.845908    
     13000   1.3            0              57.013124      57.013124      0.021753392    57.013124    
     13200   1.32           0              56.953507      56.953507      0.018704922    56.953507    
     13400   1.34           0              56.769239      56.769239      0.01888803     56.769239    
     13600   1.36           0              56.564361      56.564361      0.021020645    56.564361    
     13800   1.38           0              56.994174      56.994174      0.02571368     56.994174    
     14000   1.4            0              56.658849      56.658849      0.023134485    56.658849    
     14200   1.42           0              57.338853      57.338853      0.023892149    57.338853    
     14400   1.44           0              57.474674      57.474674      0.020630423    57.474674    
     14600   1.46           0              57.461153      57.461153      0.011058828    57.461153    
     14800   1.48           0              57.654266      57.654266      0.0089806429   57.654266    
     15000   1.5            0              57.357368      57.357368      0.0090491761   57.357368    
     15200   1.52           0              57.058871      57.058871      0.0057776009   57.058871    
     15400   1.54           0              56.846203      56.846203      0.0041390261   56.846203    
     15600   1.56           0              56.668054      56.668054      0.0059725812   56.668054    
     15800   1.58           0              56.598504      56.598504      0.014552735    56.598504    
     16000   1.6            0              56.212308      56.212308      0.017967061    56.212308    
     16200   1.62           0              56.441169      56.441169      0.015975661    56.441169    
     16400   1.64           0              56.373331      56.373331      0.021141562    56.373331    
     16600   1.66           0              56.137693      56.137693      0.022537182    56.137693    
     16800   1.68           0              56.191675      56.191675      0.025285938    56.191675    
     17000   1.7            0              56.055455      56.055455      0.023919969    56.055455    
     17200   1.72           0              56.913598      56.913598      0.024879605    56.913598    
     17400   1.74           0              57.172688      57.172688      0.011091965    57.172688    
     17600   1.76           0              57.408849      57.408849      0.0024731085   57.408849    
     17800   1.78           0              57.216876      57.216876      0.0064906479   57.216876    
     18000   1.8            0              57.795638      57.795638      0.0036449693   57.795638    
     18200   1.82           0              58.020162      58.020162      0.0063532297   58.020162    
     18400   1.84           0              58.091711      58.091711      0.0077978977   58.091711    
     18600   1.86           0              57.689444      57.689444      0.017262459    57.689444    
     18800   1.88           0              57.682666      57.682666      0.014803459    57.682666    
     19000   1.9            0              57.27879       57.27879       0.015000039    57.27879     
     19200   1.92           0              57.298688      57.298688      0.024580703    57.298688    
     19400   1.94           0              57.545306      57.545306      0.017812611    57.545306    
     19600   1.96           0              58.346479      58.346479      0.017010065    58.346479    
     19800   1.98           0              58.493478      58.493478      0.019250887    58.493478    
     20000   2              0              58.25598       58.25598       0.020737523    58.25598     
     20200   2.02           0              57.846361      57.846361      0.012410548    57.846361    
     20400   2.04           0              58.00221       58.00221       0.0084955738   58.00221     
     20511   2.0511         0              57.994493      57.994493      0.007750928    57.994493    
Loop time of 82.0935 on 1 procs for 20000 steps with 2048 atoms

Performance: 2.105 ns/day, 11.402 hours/ns, 243.625 timesteps/s, 498.943 katom-step/s
100.0% CPU use with 1 MPI tasks x 1 OpenMP threads

MPI task timing breakdown:
Section |  min time  |  avg time  |  max time  |%varavg| %total
---------------------------------------------------------------
Pair    | 20.92      | 20.92      | 20.92      |   0.0 | 25.48
Neigh   | 0          | 0          | 0          |   0.0 |  0.00
Comm    | 0.67856    | 0.67856    | 0.67856    |   0.0 |  0.83
Output  | 0.11602    | 0.11602    | 0.11602    |   0.0 |  0.14
Modify  | 60.287     | 60.287     | 60.287     |   0.0 | 73.44
Other   |            | 0.09232    |            |       |  0.11

Nlocal:           2048 ave        2048 max        2048 min
Histogram: 1 0 0 0 0 0 0 0 0 0
Nghost:           1732 ave        1732 max        1732 min
Histogram: 1 0 0 0 0 0 0 0 0 0
Neighs:              0 ave           0 max           0 min
Histogram: 1 0 0 0 0 0 0 0 0 0
FullNghs:        24576 ave       24576 max       24576 min
Histogram: 1 0 0 0 0 0 0 0 0 0

Total # of neighbors = 24576
Ave neighs/atom = 12
Neighbor list builds = 0
Dangerous builds = 0

print           "DYNAMICS_T${runtemp}_DONE"
DYNAMICS_T300_DONE
Total wall time: 0:01:22
