LAMMPS (10 Dec 2025 - Development - patch_10Dec2025-120-ga51f9ba0e7)
OMP_NUM_THREADS environment is not set. Defaulting to 1 thread.
  using 1 OpenMP thread(s) per MPI task
# Finite-T Langevin spin-dynamics stage for mp-754090 (Li4Fe2TeWO12). D is now DFT-derived
# (paramrudra jobs 49186/49187, constrained noncollinear+SOC canting probe) -- see
# in.mp754090_effective.lammps for the full J and D derivation, and the caveat that D's
# direction (y, in the arbitrary lab frame used for the probe) is a resolved-but-not-fully-3D
# DMI component, not a complete DMI vector fit. Anisotropy remains unprobed (set to 0).
#
# Run via run_scan_parallel_mp754090.sh, one temperature/seed per invocation:
#   -var runtemp <K> -var runseed <int>
#
# Same LAMMPS-build workaround as in.pdfeir_dynamics.lammps: hybrid/overlay segfaults with
# exactly 2 spin substyles on this build, padded to 3 with a zero-strength spin/magelec term.

units           metal
atom_style      spin
dimension       3
boundary        p p p
atom_modify     map array

read_restart    restart.mp754090_T0.equil
Reading restart file ...
  restart file = 10 Dec 2025, LAMMPS = 10 Dec 2025
  restoring atom style spin from restart
  triclinic box = (0 0 0) to (86.604109 72.44143 33.758371) with tilt (47.827887 47.809739 49.151162)
WARNING: Triclinic box skew is large. LAMMPS will run inefficiently. (src/domain.cpp:221)
  1 by 1 by 1 MPI processor grid
  restoring pair style hybrid/overlay from restart
  2048 atoms
  read_restart CPU = 0.001 seconds

variable        j_eff_eV equal 0.012058385
variable        d_shell equal 5.132075
variable        exch_a equal v_j_eff_eV*2.718281828/4.0
variable        rc_exch equal 5.25
variable        d_eV equal 0.00019324
variable        rc_dmi equal 5.25

pair_style      hybrid/overlay spin/exchange ${rc_exch} spin/dmi ${rc_dmi} spin/magelec ${rc_exch}
pair_style      hybrid/overlay spin/exchange 5.25 spin/dmi ${rc_dmi} spin/magelec ${rc_exch}
pair_style      hybrid/overlay spin/exchange 5.25 spin/dmi 5.25 spin/magelec ${rc_exch}
pair_style      hybrid/overlay spin/exchange 5.25 spin/dmi 5.25 spin/magelec 5.25
pair_coeff      * * spin/exchange exchange ${rc_exch} ${exch_a} 0.0 ${d_shell} offset yes
pair_coeff      * * spin/exchange exchange 5.25 ${exch_a} 0.0 ${d_shell} offset yes
pair_coeff      * * spin/exchange exchange 5.25 0.00819452220513194 0.0 ${d_shell} offset yes
pair_coeff      * * spin/exchange exchange 5.25 0.00819452220513194 0.0 5.132075 offset yes
pair_coeff      * * spin/dmi dmi ${rc_dmi} ${d_eV} 0.0 1.0 0.0
pair_coeff      * * spin/dmi dmi 5.25 ${d_eV} 0.0 1.0 0.0
pair_coeff      * * spin/dmi dmi 5.25 0.00019324 0.0 1.0 0.0
pair_coeff      * * spin/magelec magelec ${rc_exch} 0.0 1.0 1.0 1.0   # zero strength: segfault workaround only
pair_coeff      * * spin/magelec magelec 5.25 0.0 1.0 1.0 1.0   

neighbor        0.3 bin
neigh_modify    every 10 check yes delay 20

fix             1 all precession/spin zeeman 0.0 0.0 0.0 1.0
fix_modify      1 energy yes
fix             2 all langevin/spin ${runtemp} 0.05 ${runseed}
fix             2 all langevin/spin 50 0.05 ${runseed}
fix             2 all langevin/spin 50 0.05 21
fix             3 all nve/spin lattice frozen

timestep        0.0001

compute         out_mag all spin
compute         outsp all property/atom spx spy spz sp
thermo_style    custom step time temp pe etotal c_out_mag[4] c_out_mag[5]
thermo          200

dump            1 all custom 500 dump_mp754090_T${runtemp}_s${runseed}.lammpstrj type x y z c_outsp[1] c_outsp[2] c_outsp[3]
dump            1 all custom 500 dump_mp754090_T50_s${runseed}.lammpstrj type x y z c_outsp[1] c_outsp[2] c_outsp[3]
dump            1 all custom 500 dump_mp754090_T50_s21.lammpstrj type x y z c_outsp[1] c_outsp[2] c_outsp[3]

# Coarse first pass -- 20k steps @ dt=0.0001 ps = 2 ps, same length as pdfeir's first pass.
run             20000

CITE-CITE-CITE-CITE-CITE-CITE-CITE-CITE-CITE-CITE-CITE-CITE-CITE

Your simulation uses code contributions which should be cited:

- fix nve/spin command: https://doi.org/10.1016/j.jcp.2018.06.042

@article{tranchida2018massively,
title={Massively Parallel Symplectic Algorithm for Coupled Magnetic Spin    Dynamics and Molecular Dynamics},
author={Tranchida, J and Plimpton, S J and Thibaudeau, P and Thompson, A P},
journal={Journal of Computational Physics},
volume={372},
pages={406--425},
year={2018},
publisher={Elsevier}
doi={10.1016/j.jcp.2018.06.042}
}

CITE-CITE-CITE-CITE-CITE-CITE-CITE-CITE-CITE-CITE-CITE-CITE-CITE

Generated 0 of 0 mixed pair_coeff terms from geometric mixing rule
Neighbor list info ...
  update: every = 10 steps, delay = 20 steps, check = yes
  max neighbors/atom: 2000, page size: 100000
  master list distance cutoff = 5.55
  ghost atom cutoff = 5.55
  binsize = 2.775, bins = 66 44 13
  3 neighbor lists, perpetual/occasional/extra = 3 0 0
  (1) pair spin/exchange, perpetual
      attributes: full, newton on
      pair build: full/bin/atomonly
      stencil: full/bin/3d
      bin: standard
  (2) pair spin/dmi, perpetual, copy from (1)
      attributes: full, newton on
      pair build: copy
      stencil: none
      bin: none
  (3) pair spin/magelec, perpetual, copy from (1)
      attributes: full, newton on
      pair build: copy
      stencil: none
      bin: none
WARNING: Dump 1 includes no atom IDs and is not sorted by ID. This may complicate post-processing tasks or visualization (src/dump.cpp:220)
Per MPI rank memory allocation (min/avg/max) = 5.919 | 5.919 | 5.919 Mbytes
   Step          Time           Temp          PotEng         TotEng      c_out_mag[4]   c_out_mag[5] 
       511   0.0511         0             -4.2520525e-08 -4.2520525e-08  0.20312895    -4.2520525e-08
       600   0.06           0              0.8118766      0.8118766      0.20118274     0.8118766    
       800   0.08           0              2.3664488      2.3664488      0.20042434     2.3664488    
      1000   0.1            0              3.5612415      3.5612415      0.19948284     3.5612415    
      1200   0.12           0              4.4777008      4.4777008      0.20014928     4.4777008    
      1400   0.14           0              5.1837702      5.1837702      0.19945925     5.1837702    
      1600   0.16           0              5.9715921      5.9715921      0.19621723     5.9715921    
      1800   0.18           0              6.3497345      6.3497345      0.1934524      6.3497345    
      2000   0.2            0              6.8228807      6.8228807      0.19313793     6.8228807    
      2200   0.22           0              7.0806369      7.0806369      0.19199474     7.0806369    
      2400   0.24           0              7.3230516      7.3230516      0.18927172     7.3230516    
      2600   0.26           0              7.4228086      7.4228086      0.18658376     7.4228086    
      2800   0.28           0              7.5104601      7.5104601      0.18584395     7.5104601    
      3000   0.3            0              7.9119773      7.9119773      0.18220195     7.9119773    
      3200   0.32           0              8.070075       8.070075       0.18447055     8.070075     
      3400   0.34           0              7.9289418      7.9289418      0.18444072     7.9289418    
      3600   0.36           0              8.1518658      8.1518658      0.18573123     8.1518658    
      3800   0.38           0              8.2526225      8.2526225      0.18343252     8.2526225    
      4000   0.4            0              8.2302459      8.2302459      0.18381882     8.2302459    
      4200   0.42           0              8.2343279      8.2343279      0.18490352     8.2343279    
      4400   0.44           0              8.4731391      8.4731391      0.18432957     8.4731391    
      4600   0.46           0              8.5171464      8.5171464      0.18329573     8.5171464    
      4800   0.48           0              8.4988618      8.4988618      0.18445069     8.4988618    
      5000   0.5            0              8.521481       8.521481       0.18644519     8.521481     
      5200   0.52           0              8.7021255      8.7021255      0.18487322     8.7021255    
      5400   0.54           0              8.6874612      8.6874612      0.1848464      8.6874612    
      5600   0.56           0              8.7359973      8.7359973      0.18417258     8.7359973    
      5800   0.58           0              8.700346       8.700346       0.18666306     8.700346     
      6000   0.6            0              8.8379319      8.8379319      0.18381359     8.8379319    
      6200   0.62           0              8.6207834      8.6207834      0.18052492     8.6207834    
      6400   0.64           0              8.6988852      8.6988852      0.17967238     8.6988852    
      6600   0.66           0              8.6851859      8.6851859      0.18165864     8.6851859    
      6800   0.68           0              8.5941484      8.5941484      0.18229762     8.5941484    
      7000   0.7            0              8.729909       8.729909       0.18137036     8.729909     
      7200   0.72           0              8.8066154      8.8066154      0.18069065     8.8066154    
      7400   0.74           0              8.8473792      8.8473792      0.18353613     8.8473792    
      7600   0.76           0              8.8812811      8.8812811      0.1840877      8.8812811    
      7800   0.78           0              8.8845648      8.8845648      0.18159218     8.8845648    
      8000   0.8            0              8.8577657      8.8577657      0.18315162     8.8577657    
      8200   0.82           0              8.9541237      8.9541237      0.17965513     8.9541237    
      8400   0.84           0              8.7187034      8.7187034      0.17988267     8.7187034    
      8600   0.86           0              8.865809       8.865809       0.17780172     8.865809     
      8800   0.88           0              8.772312       8.772312       0.17845683     8.772312     
      9000   0.9            0              8.7577324      8.7577324      0.18056492     8.7577324    
      9200   0.92           0              8.7928963      8.7928963      0.18059155     8.7928963    
      9400   0.94           0              8.8049848      8.8049848      0.1800535      8.8049848    
      9600   0.96           0              8.7678129      8.7678129      0.17716696     8.7678129    
      9800   0.98           0              8.9535057      8.9535057      0.1783644      8.9535057    
     10000   1              0              8.9968905      8.9968905      0.18056152     8.9968905    
     10200   1.02           0              8.9276566      8.9276566      0.18139329     8.9276566    
     10400   1.04           0              8.9143015      8.9143015      0.18185698     8.9143015    
     10600   1.06           0              8.9901108      8.9901108      0.18056524     8.9901108    
     10800   1.08           0              8.7559627      8.7559627      0.17961879     8.7559627    
     11000   1.1            0              8.6341336      8.6341336      0.18012094     8.6341336    
     11200   1.12           0              8.6616644      8.6616644      0.17937936     8.6616644    
     11400   1.14           0              8.9312816      8.9312816      0.17565514     8.9312816    
     11600   1.16           0              8.7117704      8.7117704      0.17846451     8.7117704    
     11800   1.18           0              8.789422       8.789422       0.1776972      8.789422     
     12000   1.2            0              8.6806492      8.6806492      0.17579914     8.6806492    
     12200   1.22           0              8.7007829      8.7007829      0.17501133     8.7007829    
     12400   1.24           0              8.9068398      8.9068398      0.17537352     8.9068398    
     12600   1.26           0              8.7927224      8.7927224      0.1733737      8.7927224    
     12800   1.28           0              8.8021363      8.8021363      0.16981653     8.8021363    
     13000   1.3            0              8.7034106      8.7034106      0.17124339     8.7034106    
     13200   1.32           0              8.7432233      8.7432233      0.16959596     8.7432233    
     13400   1.34           0              8.8225418      8.8225418      0.16968084     8.8225418    
     13600   1.36           0              8.7599594      8.7599594      0.17150165     8.7599594    
     13800   1.38           0              8.9819553      8.9819553      0.17305016     8.9819553    
     14000   1.4            0              8.9919611      8.9919611      0.17224269     8.9919611    
     14200   1.42           0              9.0168354      9.0168354      0.17565068     9.0168354    
     14400   1.44           0              9.0483243      9.0483243      0.17689373     9.0483243    
     14600   1.46           0              9.1063503      9.1063503      0.17570312     9.1063503    
     14800   1.48           0              9.1145186      9.1145186      0.17296875     9.1145186    
     15000   1.5            0              9.1634964      9.1634964      0.16956535     9.1634964    
     15200   1.52           0              9.1065062      9.1065062      0.17000828     9.1065062    
     15400   1.54           0              9.1665338      9.1665338      0.16926312     9.1665338    
     15600   1.56           0              9.1194692      9.1194692      0.16765282     9.1194692    
     15800   1.58           0              9.0837375      9.0837375      0.16871367     9.0837375    
     16000   1.6            0              9.0818812      9.0818812      0.16921637     9.0818812    
     16200   1.62           0              8.9954974      8.9954974      0.1677424      8.9954974    
     16400   1.64           0              8.900913       8.900913       0.16871028     8.900913     
     16600   1.66           0              8.8466313      8.8466313      0.16842595     8.8466313    
     16800   1.68           0              8.8314408      8.8314408      0.16888358     8.8314408    
     17000   1.7            0              8.7982322      8.7982322      0.16988952     8.7982322    
     17200   1.72           0              8.7113453      8.7113453      0.16765665     8.7113453    
     17400   1.74           0              8.5896096      8.5896096      0.16858645     8.5896096    
     17600   1.76           0              8.6867394      8.6867394      0.16794673     8.6867394    
     17800   1.78           0              8.7908698      8.7908698      0.16762895     8.7908698    
     18000   1.8            0              8.8613451      8.8613451      0.1696151      8.8613451    
     18200   1.82           0              9.0923061      9.0923061      0.16875616     9.0923061    
     18400   1.84           0              9.0987271      9.0987271      0.17033027     9.0987271    
     18600   1.86           0              9.151481       9.151481       0.17086547     9.151481     
     18800   1.88           0              8.9727683      8.9727683      0.17245989     8.9727683    
     19000   1.9            0              9.1052388      9.1052388      0.17291607     9.1052388    
     19200   1.92           0              9.2196892      9.2196892      0.17266669     9.2196892    
     19400   1.94           0              9.2349729      9.2349729      0.17510644     9.2349729    
     19600   1.96           0              9.3356316      9.3356316      0.17581319     9.3356316    
     19800   1.98           0              9.3303438      9.3303438      0.17226555     9.3303438    
     20000   2              0              9.32063        9.32063        0.17142956     9.32063      
     20200   2.02           0              9.3989         9.3989         0.17639137     9.3989       
     20400   2.04           0              9.4024116      9.4024116      0.17483308     9.4024116    
     20511   2.0511         0              9.2906551      9.2906551      0.17652928     9.2906551    
Loop time of 79.4151 on 1 procs for 20000 steps with 2048 atoms

Performance: 2.176 ns/day, 11.030 hours/ns, 251.841 timesteps/s, 515.771 katom-step/s
100.0% CPU use with 1 MPI tasks x 1 OpenMP threads

MPI task timing breakdown:
Section |  min time  |  avg time  |  max time  |%varavg| %total
---------------------------------------------------------------
Pair    | 20.673     | 20.673     | 20.673     |   0.0 | 26.03
Neigh   | 0          | 0          | 0          |   0.0 |  0.00
Comm    | 0.70623    | 0.70623    | 0.70623    |   0.0 |  0.89
Output  | 0.11691    | 0.11691    | 0.11691    |   0.0 |  0.15
Modify  | 57.828     | 57.828     | 57.828     |   0.0 | 72.82
Other   |            | 0.09082    |            |       |  0.11

Nlocal:           2048 ave        2048 max        2048 min
Histogram: 1 0 0 0 0 0 0 0 0 0
Nghost:           1732 ave        1732 max        1732 min
Histogram: 1 0 0 0 0 0 0 0 0 0
Neighs:              0 ave           0 max           0 min
Histogram: 1 0 0 0 0 0 0 0 0 0
FullNghs:        24576 ave       24576 max       24576 min
Histogram: 1 0 0 0 0 0 0 0 0 0

Total # of neighbors = 24576
Ave neighs/atom = 12
Neighbor list builds = 0
Dangerous builds = 0

print           "DYNAMICS_T${runtemp}_DONE"
DYNAMICS_T50_DONE
Total wall time: 0:01:19
