LAMMPS (10 Dec 2025 - Development - patch_10Dec2025-120-ga51f9ba0e7)
OMP_NUM_THREADS environment is not set. Defaulting to 1 thread.
  using 1 OpenMP thread(s) per MPI task
# Finite-T Langevin spin-dynamics stage for mp-754090 (Li4Fe2TeWO12). D is now DFT-derived
# (paramrudra jobs 49186/49187, constrained noncollinear+SOC canting probe) -- see
# in.mp754090_effective.lammps for the full J and D derivation, and the caveat that D's
# direction (y, in the arbitrary lab frame used for the probe) is a resolved-but-not-fully-3D
# DMI component, not a complete DMI vector fit. Anisotropy remains unprobed (set to 0).
#
# Run via run_scan_parallel_mp754090.sh, one temperature/seed per invocation:
#   -var runtemp <K> -var runseed <int>
#
# Same LAMMPS-build workaround as in.pdfeir_dynamics.lammps: hybrid/overlay segfaults with
# exactly 2 spin substyles on this build, padded to 3 with a zero-strength spin/magelec term.

units           metal
atom_style      spin
dimension       3
boundary        p p p
atom_modify     map array

read_restart    restart.mp754090_T0.equil
Reading restart file ...
  restart file = 10 Dec 2025, LAMMPS = 10 Dec 2025
  restoring atom style spin from restart
  triclinic box = (0 0 0) to (86.604109 72.44143 33.758371) with tilt (47.827887 47.809739 49.151162)
WARNING: Triclinic box skew is large. LAMMPS will run inefficiently. (src/domain.cpp:221)
  1 by 1 by 1 MPI processor grid
  restoring pair style hybrid/overlay from restart
  2048 atoms
  read_restart CPU = 0.001 seconds

variable        j_eff_eV equal 0.012058385
variable        d_shell equal 5.132075
variable        exch_a equal v_j_eff_eV*2.718281828/4.0
variable        rc_exch equal 5.25
variable        d_eV equal 0.00019324
variable        rc_dmi equal 5.25

pair_style      hybrid/overlay spin/exchange ${rc_exch} spin/dmi ${rc_dmi} spin/magelec ${rc_exch}
pair_style      hybrid/overlay spin/exchange 5.25 spin/dmi ${rc_dmi} spin/magelec ${rc_exch}
pair_style      hybrid/overlay spin/exchange 5.25 spin/dmi 5.25 spin/magelec ${rc_exch}
pair_style      hybrid/overlay spin/exchange 5.25 spin/dmi 5.25 spin/magelec 5.25
pair_coeff      * * spin/exchange exchange ${rc_exch} ${exch_a} 0.0 ${d_shell} offset yes
pair_coeff      * * spin/exchange exchange 5.25 ${exch_a} 0.0 ${d_shell} offset yes
pair_coeff      * * spin/exchange exchange 5.25 0.00819452220513194 0.0 ${d_shell} offset yes
pair_coeff      * * spin/exchange exchange 5.25 0.00819452220513194 0.0 5.132075 offset yes
pair_coeff      * * spin/dmi dmi ${rc_dmi} ${d_eV} 0.0 1.0 0.0
pair_coeff      * * spin/dmi dmi 5.25 ${d_eV} 0.0 1.0 0.0
pair_coeff      * * spin/dmi dmi 5.25 0.00019324 0.0 1.0 0.0
pair_coeff      * * spin/magelec magelec ${rc_exch} 0.0 1.0 1.0 1.0   # zero strength: segfault workaround only
pair_coeff      * * spin/magelec magelec 5.25 0.0 1.0 1.0 1.0   

neighbor        0.3 bin
neigh_modify    every 10 check yes delay 20

fix             1 all precession/spin zeeman 0.0 0.0 0.0 1.0
fix_modify      1 energy yes
fix             2 all langevin/spin ${runtemp} 0.05 ${runseed}
fix             2 all langevin/spin 100 0.05 ${runseed}
fix             2 all langevin/spin 100 0.05 21
fix             3 all nve/spin lattice frozen

timestep        0.0001

compute         out_mag all spin
compute         outsp all property/atom spx spy spz sp
thermo_style    custom step time temp pe etotal c_out_mag[4] c_out_mag[5]
thermo          200

dump            1 all custom 500 dump_mp754090_T${runtemp}_s${runseed}.lammpstrj type x y z c_outsp[1] c_outsp[2] c_outsp[3]
dump            1 all custom 500 dump_mp754090_T100_s${runseed}.lammpstrj type x y z c_outsp[1] c_outsp[2] c_outsp[3]
dump            1 all custom 500 dump_mp754090_T100_s21.lammpstrj type x y z c_outsp[1] c_outsp[2] c_outsp[3]

# Coarse first pass -- 20k steps @ dt=0.0001 ps = 2 ps, same length as pdfeir's first pass.
run             20000

CITE-CITE-CITE-CITE-CITE-CITE-CITE-CITE-CITE-CITE-CITE-CITE-CITE

Your simulation uses code contributions which should be cited:

- fix nve/spin command: https://doi.org/10.1016/j.jcp.2018.06.042

@article{tranchida2018massively,
title={Massively Parallel Symplectic Algorithm for Coupled Magnetic Spin    Dynamics and Molecular Dynamics},
author={Tranchida, J and Plimpton, S J and Thibaudeau, P and Thompson, A P},
journal={Journal of Computational Physics},
volume={372},
pages={406--425},
year={2018},
publisher={Elsevier}
doi={10.1016/j.jcp.2018.06.042}
}

CITE-CITE-CITE-CITE-CITE-CITE-CITE-CITE-CITE-CITE-CITE-CITE-CITE

Generated 0 of 0 mixed pair_coeff terms from geometric mixing rule
Neighbor list info ...
  update: every = 10 steps, delay = 20 steps, check = yes
  max neighbors/atom: 2000, page size: 100000
  master list distance cutoff = 5.55
  ghost atom cutoff = 5.55
  binsize = 2.775, bins = 66 44 13
  3 neighbor lists, perpetual/occasional/extra = 3 0 0
  (1) pair spin/exchange, perpetual
      attributes: full, newton on
      pair build: full/bin/atomonly
      stencil: full/bin/3d
      bin: standard
  (2) pair spin/dmi, perpetual, copy from (1)
      attributes: full, newton on
      pair build: copy
      stencil: none
      bin: none
  (3) pair spin/magelec, perpetual, copy from (1)
      attributes: full, newton on
      pair build: copy
      stencil: none
      bin: none
WARNING: Dump 1 includes no atom IDs and is not sorted by ID. This may complicate post-processing tasks or visualization (src/dump.cpp:220)
Per MPI rank memory allocation (min/avg/max) = 5.919 | 5.919 | 5.919 Mbytes
   Step          Time           Temp          PotEng         TotEng      c_out_mag[4]   c_out_mag[5] 
       511   0.0511         0             -4.2520525e-08 -4.2520525e-08  0.20312895    -4.2520525e-08
       600   0.06           0              1.6167067      1.6167067      0.19983347     1.6167067    
       800   0.08           0              4.6640869      4.6640869      0.19731943     4.6640869    
      1000   0.1            0              6.9897204      6.9897204      0.19509574     6.9897204    
      1200   0.12           0              8.7899718      8.7899718      0.1950615      8.7899718    
      1400   0.14           0              10.132172      10.132172      0.19351217     10.132172    
      1600   0.16           0              11.677313      11.677313      0.18785583     11.677313    
      1800   0.18           0              12.456681      12.456681      0.18336462     12.456681    
      2000   0.2            0              13.326998      13.326998      0.18383531     13.326998    
      2200   0.22           0              13.821578      13.821578      0.18181761     13.821578    
      2400   0.24           0              14.264263      14.264263      0.17771802     14.264263    
      2600   0.26           0              14.372667      14.372667      0.17397789     14.372667    
      2800   0.28           0              14.767536      14.767536      0.17188511     14.767536    
      3000   0.3            0              15.622088      15.622088      0.16613885     15.622088    
      3200   0.32           0              15.965625      15.965625      0.16775372     15.965625    
      3400   0.34           0              15.837821      15.837821      0.16851915     15.837821    
      3600   0.36           0              16.102928      16.102928      0.17016676     16.102928    
      3800   0.38           0              16.274158      16.274158      0.16675372     16.274158    
      4000   0.4            0              16.262599      16.262599      0.16694079     16.262599    
      4200   0.42           0              16.353555      16.353555      0.16979614     16.353555    
      4400   0.44           0              16.933831      16.933831      0.16782752     16.933831    
      4600   0.46           0              16.890321      16.890321      0.16635713     16.890321    
      4800   0.48           0              16.988837      16.988837      0.1685606      16.988837    
      5000   0.5            0              17.204208      17.204208      0.17144085     17.204208    
      5200   0.52           0              17.590375      17.590375      0.16990707     17.590375    
      5400   0.54           0              17.448792      17.448792      0.16863908     17.448792    
      5600   0.56           0              17.738287      17.738287      0.16653226     17.738287    
      5800   0.58           0              17.367073      17.367073      0.17152484     17.367073    
      6000   0.6            0              17.419306      17.419306      0.16568886     17.419306    
      6200   0.62           0              17.240522      17.240522      0.16139485     17.240522    
      6400   0.64           0              17.574137      17.574137      0.15854912     17.574137    
      6600   0.66           0              17.615033      17.615033      0.16090417     17.615033    
      6800   0.68           0              17.821049      17.821049      0.15995913     17.821049    
      7000   0.7            0              17.816476      17.816476      0.15892266     17.816476    
      7200   0.72           0              18.049161      18.049161      0.15768927     18.049161    
      7400   0.74           0              18.221076      18.221076      0.16019015     18.221076    
      7600   0.76           0              17.729211      17.729211      0.16089182     17.729211    
      7800   0.78           0              17.786035      17.786035      0.15537823     17.786035    
      8000   0.8            0              18.179744      18.179744      0.15756462     18.179744    
      8200   0.82           0              17.994867      17.994867      0.15279725     17.994867    
      8400   0.84           0              17.815415      17.815415      0.15344251     17.815415    
      8600   0.86           0              18.144411      18.144411      0.14993519     18.144411    
      8800   0.88           0              18.249389      18.249389      0.15230778     18.249389    
      9000   0.9            0              18.068494      18.068494      0.15463273     18.068494    
      9200   0.92           0              17.935802      17.935802      0.15308454     17.935802    
      9400   0.94           0              17.823077      17.823077      0.15216604     17.823077    
      9600   0.96           0              17.663278      17.663278      0.14844412     17.663278    
      9800   0.98           0              18.008116      18.008116      0.15074824     18.008116    
     10000   1              0              17.976734      17.976734      0.15237482     17.976734    
     10200   1.02           0              18.357068      18.357068      0.15477454     18.357068    
     10400   1.04           0              18.234542      18.234542      0.15720951     18.234542    
     10600   1.06           0              18.277609      18.277609      0.15665175     18.277609    
     10800   1.08           0              17.799726      17.799726      0.15545142     17.799726    
     11000   1.1            0              17.579966      17.579966      0.15568269     17.579966    
     11200   1.12           0              17.727649      17.727649      0.15621468     17.727649    
     11400   1.14           0              18.075774      18.075774      0.14974565     18.075774    
     11600   1.16           0              17.930245      17.930245      0.15044387     17.930245    
     11800   1.18           0              18.405216      18.405216      0.14976196     18.405216    
     12000   1.2            0              18.212743      18.212743      0.14780102     18.212743    
     12200   1.22           0              18.260197      18.260197      0.14693493     18.260197    
     12400   1.24           0              18.636324      18.636324      0.14755151     18.636324    
     12600   1.26           0              18.376819      18.376819      0.1439228      18.376819    
     12800   1.28           0              18.340926      18.340926      0.13944313     18.340926    
     13000   1.3            0              18.213806      18.213806      0.14178208     18.213806    
     13200   1.32           0              18.068626      18.068626      0.13900251     18.068626    
     13400   1.34           0              18.193507      18.193507      0.14101002     18.193507    
     13600   1.36           0              18.254108      18.254108      0.14271508     18.254108    
     13800   1.38           0              18.348813      18.348813      0.14691013     18.348813    
     14000   1.4            0              18.143648      18.143648      0.14746966     18.143648    
     14200   1.42           0              18.223008      18.223008      0.15003527     18.223008    
     14400   1.44           0              18.286795      18.286795      0.15238621     18.286795    
     14600   1.46           0              18.582872      18.582872      0.14957718     18.582872    
     14800   1.48           0              19.050279      19.050279      0.14742074     19.050279    
     15000   1.5            0              18.996881      18.996881      0.14013794     18.996881    
     15200   1.52           0              19.062487      19.062487      0.13885867     19.062487    
     15400   1.54           0              19.239261      19.239261      0.13929207     19.239261    
     15600   1.56           0              19.130298      19.130298      0.13746151     19.130298    
     15800   1.58           0              18.948841      18.948841      0.13900546     18.948841    
     16000   1.6            0              19.255838      19.255838      0.1376605      19.255838    
     16200   1.62           0              19.260294      19.260294      0.13803711     19.260294    
     16400   1.64           0              19.30089       19.30089       0.13885214     19.30089     
     16600   1.66           0              19.388683      19.388683      0.13855336     19.388683    
     16800   1.68           0              19.112492      19.112492      0.14092643     19.112492    
     17000   1.7            0              18.697834      18.697834      0.14100116     18.697834    
     17200   1.72           0              18.21607       18.21607       0.13966252     18.21607     
     17400   1.74           0              18.178611      18.178611      0.1419119      18.178611    
     17600   1.76           0              18.540434      18.540434      0.14156834     18.540434    
     17800   1.78           0              18.816348      18.816348      0.14346699     18.816348    
     18000   1.8            0              18.959841      18.959841      0.14710119     18.959841    
     18200   1.82           0              18.831826      18.831826      0.15026558     18.831826    
     18400   1.84           0              19.060635      19.060635      0.14911229     19.060635    
     18600   1.86           0              19.100597      19.100597      0.1484352      19.100597    
     18800   1.88           0              18.931211      18.931211      0.14914538     18.931211    
     19000   1.9            0              19.026051      19.026051      0.14904254     19.026051    
     19200   1.92           0              19.407041      19.407041      0.14657108     19.407041    
     19400   1.94           0              19.425295      19.425295      0.14975176     19.425295    
     19600   1.96           0              19.24407       19.24407       0.15105545     19.24407     
     19800   1.98           0              19.635398      19.635398      0.14465382     19.635398    
     20000   2              0              19.474305      19.474305      0.14765773     19.474305    
     20200   2.02           0              19.372884      19.372884      0.15547577     19.372884    
     20400   2.04           0              19.270999      19.270999      0.15305562     19.270999    
     20511   2.0511         0              19.234494      19.234494      0.15723632     19.234494    
Loop time of 79.1882 on 1 procs for 20000 steps with 2048 atoms

Performance: 2.182 ns/day, 10.998 hours/ns, 252.563 timesteps/s, 517.249 katom-step/s
100.0% CPU use with 1 MPI tasks x 1 OpenMP threads

MPI task timing breakdown:
Section |  min time  |  avg time  |  max time  |%varavg| %total
---------------------------------------------------------------
Pair    | 20.444     | 20.444     | 20.444     |   0.0 | 25.82
Neigh   | 0          | 0          | 0          |   0.0 |  0.00
Comm    | 0.6943     | 0.6943     | 0.6943     |   0.0 |  0.88
Output  | 0.11501    | 0.11501    | 0.11501    |   0.0 |  0.15
Modify  | 57.838     | 57.838     | 57.838     |   0.0 | 73.04
Other   |            | 0.09604    |            |       |  0.12

Nlocal:           2048 ave        2048 max        2048 min
Histogram: 1 0 0 0 0 0 0 0 0 0
Nghost:           1732 ave        1732 max        1732 min
Histogram: 1 0 0 0 0 0 0 0 0 0
Neighs:              0 ave           0 max           0 min
Histogram: 1 0 0 0 0 0 0 0 0 0
FullNghs:        24576 ave       24576 max       24576 min
Histogram: 1 0 0 0 0 0 0 0 0 0

Total # of neighbors = 24576
Ave neighs/atom = 12
Neighbor list builds = 0
Dangerous builds = 0

print           "DYNAMICS_T${runtemp}_DONE"
DYNAMICS_T100_DONE
Total wall time: 0:01:19
