LAMMPS (10 Dec 2025 - Development - patch_10Dec2025-120-ga51f9ba0e7)
OMP_NUM_THREADS environment is not set. Defaulting to 1 thread.
  using 1 OpenMP thread(s) per MPI task
# Finite-T Langevin spin-dynamics stage for mp-754090 (Li4Fe2TeWO12). D is now DFT-derived
# (paramrudra jobs 49186/49187, constrained noncollinear+SOC canting probe) -- see
# in.mp754090_effective.lammps for the full J and D derivation, and the caveat that D's
# direction (y, in the arbitrary lab frame used for the probe) is a resolved-but-not-fully-3D
# DMI component, not a complete DMI vector fit. Anisotropy remains unprobed (set to 0).
#
# Run via run_scan_parallel_mp754090.sh, one temperature/seed per invocation:
#   -var runtemp <K> -var runseed <int>
#
# Same LAMMPS-build workaround as in.pdfeir_dynamics.lammps: hybrid/overlay segfaults with
# exactly 2 spin substyles on this build, padded to 3 with a zero-strength spin/magelec term.

units           metal
atom_style      spin
dimension       3
boundary        p p p
atom_modify     map array

read_restart    restart.mp754090_T0.equil
Reading restart file ...
  restart file = 10 Dec 2025, LAMMPS = 10 Dec 2025
  restoring atom style spin from restart
  triclinic box = (0 0 0) to (86.604109 72.44143 33.758371) with tilt (47.827887 47.809739 49.151162)
WARNING: Triclinic box skew is large. LAMMPS will run inefficiently. (src/domain.cpp:221)
  1 by 1 by 1 MPI processor grid
  restoring pair style hybrid/overlay from restart
  2048 atoms
  read_restart CPU = 0.001 seconds

variable        j_eff_eV equal 0.012058385
variable        d_shell equal 5.132075
variable        exch_a equal v_j_eff_eV*2.718281828/4.0
variable        rc_exch equal 5.25
variable        d_eV equal 0.00019324
variable        rc_dmi equal 5.25

pair_style      hybrid/overlay spin/exchange ${rc_exch} spin/dmi ${rc_dmi} spin/magelec ${rc_exch}
pair_style      hybrid/overlay spin/exchange 5.25 spin/dmi ${rc_dmi} spin/magelec ${rc_exch}
pair_style      hybrid/overlay spin/exchange 5.25 spin/dmi 5.25 spin/magelec ${rc_exch}
pair_style      hybrid/overlay spin/exchange 5.25 spin/dmi 5.25 spin/magelec 5.25
pair_coeff      * * spin/exchange exchange ${rc_exch} ${exch_a} 0.0 ${d_shell} offset yes
pair_coeff      * * spin/exchange exchange 5.25 ${exch_a} 0.0 ${d_shell} offset yes
pair_coeff      * * spin/exchange exchange 5.25 0.00819452220513194 0.0 ${d_shell} offset yes
pair_coeff      * * spin/exchange exchange 5.25 0.00819452220513194 0.0 5.132075 offset yes
pair_coeff      * * spin/dmi dmi ${rc_dmi} ${d_eV} 0.0 1.0 0.0
pair_coeff      * * spin/dmi dmi 5.25 ${d_eV} 0.0 1.0 0.0
pair_coeff      * * spin/dmi dmi 5.25 0.00019324 0.0 1.0 0.0
pair_coeff      * * spin/magelec magelec ${rc_exch} 0.0 1.0 1.0 1.0   # zero strength: segfault workaround only
pair_coeff      * * spin/magelec magelec 5.25 0.0 1.0 1.0 1.0   

neighbor        0.3 bin
neigh_modify    every 10 check yes delay 20

fix             1 all precession/spin zeeman 0.0 0.0 0.0 1.0
fix_modify      1 energy yes
fix             2 all langevin/spin ${runtemp} 0.05 ${runseed}
fix             2 all langevin/spin 10 0.05 ${runseed}
fix             2 all langevin/spin 10 0.05 21
fix             3 all nve/spin lattice frozen

timestep        0.0001

compute         out_mag all spin
compute         outsp all property/atom spx spy spz sp
thermo_style    custom step time temp pe etotal c_out_mag[4] c_out_mag[5]
thermo          200

dump            1 all custom 500 dump_mp754090_T${runtemp}_s${runseed}.lammpstrj type x y z c_outsp[1] c_outsp[2] c_outsp[3]
dump            1 all custom 500 dump_mp754090_T10_s${runseed}.lammpstrj type x y z c_outsp[1] c_outsp[2] c_outsp[3]
dump            1 all custom 500 dump_mp754090_T10_s21.lammpstrj type x y z c_outsp[1] c_outsp[2] c_outsp[3]

# Coarse first pass -- 20k steps @ dt=0.0001 ps = 2 ps, same length as pdfeir's first pass.
run             20000

CITE-CITE-CITE-CITE-CITE-CITE-CITE-CITE-CITE-CITE-CITE-CITE-CITE

Your simulation uses code contributions which should be cited:

- fix nve/spin command: https://doi.org/10.1016/j.jcp.2018.06.042

@article{tranchida2018massively,
title={Massively Parallel Symplectic Algorithm for Coupled Magnetic Spin    Dynamics and Molecular Dynamics},
author={Tranchida, J and Plimpton, S J and Thibaudeau, P and Thompson, A P},
journal={Journal of Computational Physics},
volume={372},
pages={406--425},
year={2018},
publisher={Elsevier}
doi={10.1016/j.jcp.2018.06.042}
}

CITE-CITE-CITE-CITE-CITE-CITE-CITE-CITE-CITE-CITE-CITE-CITE-CITE

Generated 0 of 0 mixed pair_coeff terms from geometric mixing rule
Neighbor list info ...
  update: every = 10 steps, delay = 20 steps, check = yes
  max neighbors/atom: 2000, page size: 100000
  master list distance cutoff = 5.55
  ghost atom cutoff = 5.55
  binsize = 2.775, bins = 66 44 13
  3 neighbor lists, perpetual/occasional/extra = 3 0 0
  (1) pair spin/exchange, perpetual
      attributes: full, newton on
      pair build: full/bin/atomonly
      stencil: full/bin/3d
      bin: standard
  (2) pair spin/dmi, perpetual, copy from (1)
      attributes: full, newton on
      pair build: copy
      stencil: none
      bin: none
  (3) pair spin/magelec, perpetual, copy from (1)
      attributes: full, newton on
      pair build: copy
      stencil: none
      bin: none
WARNING: Dump 1 includes no atom IDs and is not sorted by ID. This may complicate post-processing tasks or visualization (src/dump.cpp:220)
Per MPI rank memory allocation (min/avg/max) = 5.919 | 5.919 | 5.919 Mbytes
   Step          Time           Temp          PotEng         TotEng      c_out_mag[4]   c_out_mag[5] 
       511   0.0511         0             -4.2520525e-08 -4.2520525e-08  0.20312895    -4.2520525e-08
       600   0.06           0              0.16286253     0.16286253     0.20248958     0.16286253   
       800   0.08           0              0.47916371     0.47916371     0.20277067     0.47916371   
      1000   0.1            0              0.72324654     0.72324654     0.20271382     0.72324654   
      1200   0.12           0              0.90848479     0.90848479     0.20336933     0.90848479   
      1400   0.14           0              1.0546398      1.0546398      0.2033656      1.0546398    
      1600   0.16           0              1.2125109      1.2125109      0.20244071     1.2125109    
      1800   0.18           0              1.2864845      1.2864845      0.20144787     1.2864845    
      2000   0.2            0              1.3869291      1.3869291      0.2010518      1.3869291    
      2200   0.22           0              1.4384923      1.4384923      0.2006798      1.4384923    
      2400   0.24           0              1.485605       1.485605       0.19961835     1.485605     
      2600   0.26           0              1.510835       1.510835       0.19848646     1.510835     
      2800   0.28           0              1.5141458      1.5141458      0.19797602     1.5141458    
      3000   0.3            0              1.5867502      1.5867502      0.19678691     1.5867502    
      3200   0.32           0              1.6155899      1.6155899      0.19815723     1.6155899    
      3400   0.34           0              1.5920755      1.5920755      0.19811389     1.5920755    
      3600   0.36           0              1.6374075      1.6374075      0.19876437     1.6374075    
      3800   0.38           0              1.6753768      1.6753768      0.19777659     1.6753768    
      4000   0.4            0              1.6595673      1.6595673      0.19819365     1.6595673    
      4200   0.42           0              1.6589165      1.6589165      0.19873281     1.6589165    
      4400   0.44           0              1.689613       1.689613       0.19859001     1.689613     
      4600   0.46           0              1.6763398      1.6763398      0.19778815     1.6763398    
      4800   0.48           0              1.6886351      1.6886351      0.19851968     1.6886351    
      5000   0.5            0              1.6904429      1.6904429      0.19918576     1.6904429    
      5200   0.52           0              1.6967519      1.6967519      0.1984393      1.6967519    
      5400   0.54           0              1.6866789      1.6866789      0.1985263      1.6866789    
      5600   0.56           0              1.7187586      1.7187586      0.19855508     1.7187586    
      5800   0.58           0              1.7282173      1.7282173      0.19931004     1.7282173    
      6000   0.6            0              1.7627372      1.7627372      0.1988954      1.7627372    
      6200   0.62           0              1.7270779      1.7270779      0.19719691     1.7270779    
      6400   0.64           0              1.7021972      1.7021972      0.19680029     1.7021972    
      6600   0.66           0              1.7129069      1.7129069      0.19725818     1.7129069    
      6800   0.68           0              1.6846179      1.6846179      0.1976852      1.6846179    
      7000   0.7            0              1.6820455      1.6820455      0.19715227     1.6820455    
      7200   0.72           0              1.6922904      1.6922904      0.1967021      1.6922904    
      7400   0.74           0              1.6923121      1.6923121      0.19803332     1.6923121    
      7600   0.76           0              1.7074041      1.7074041      0.19814133     1.7074041    
      7800   0.78           0              1.6959351      1.6959351      0.19754528     1.6959351    
      8000   0.8            0              1.7004178      1.7004178      0.19798505     1.7004178    
      8200   0.82           0              1.7135584      1.7135584      0.196427       1.7135584    
      8400   0.84           0              1.6969255      1.6969255      0.19650559     1.6969255    
      8600   0.86           0              1.7408444      1.7408444      0.19594756     1.7408444    
      8800   0.88           0              1.7023076      1.7023076      0.19646944     1.7023076    
      9000   0.9            0              1.7028511      1.7028511      0.19739809     1.7028511    
      9200   0.92           0              1.7247974      1.7247974      0.19786671     1.7247974    
      9400   0.94           0              1.7480377      1.7480377      0.19739581     1.7480377    
      9600   0.96           0              1.7210297      1.7210297      0.19614975     1.7210297    
      9800   0.98           0              1.7648959      1.7648959      0.19600275     1.7648959    
     10000   1              0              1.7660332      1.7660332      0.19711043     1.7660332    
     10200   1.02           0              1.7611192      1.7611192      0.19727576     1.7611192    
     10400   1.04           0              1.735772       1.735772       0.19747501     1.735772     
     10600   1.06           0              1.7453467      1.7453467      0.19686235     1.7453467    
     10800   1.08           0              1.7301428      1.7301428      0.19676048     1.7301428    
     11000   1.1            0              1.7020121      1.7020121      0.19693859     1.7020121    
     11200   1.12           0              1.6938261      1.6938261      0.19666727     1.6938261    
     11400   1.14           0              1.712771       1.712771       0.19504058     1.712771     
     11600   1.16           0              1.6716408      1.6716408      0.19618346     1.6716408    
     11800   1.18           0              1.6912274      1.6912274      0.19639204     1.6912274    
     12000   1.2            0              1.6715074      1.6715074      0.19557352     1.6715074    
     12200   1.22           0              1.6783432      1.6783432      0.19484956     1.6783432    
     12400   1.24           0              1.7278306      1.7278306      0.19493728     1.7278306    
     12600   1.26           0              1.7196636      1.7196636      0.19394343     1.7196636    
     12800   1.28           0              1.758179       1.758179       0.19214385     1.758179     
     13000   1.3            0              1.7271013      1.7271013      0.19203208     1.7271013    
     13200   1.32           0              1.7366368      1.7366368      0.19084899     1.7366368    
     13400   1.34           0              1.7319096      1.7319096      0.1908403      1.7319096    
     13600   1.36           0              1.6979439      1.6979439      0.19177849     1.6979439    
     13800   1.38           0              1.7580039      1.7580039      0.19229406     1.7580039    
     14000   1.4            0              1.7692931      1.7692931      0.19200077     1.7692931    
     14200   1.42           0              1.7463652      1.7463652      0.19317424     1.7463652    
     14400   1.44           0              1.7691407      1.7691407      0.19383235     1.7691407    
     14600   1.46           0              1.7739571      1.7739571      0.19325145     1.7739571    
     14800   1.48           0              1.7692902      1.7692902      0.19256241     1.7692902    
     15000   1.5            0              1.7416947      1.7416947      0.19153567     1.7416947    
     15200   1.52           0              1.732848       1.732848       0.19162382     1.732848     
     15400   1.54           0              1.7503258      1.7503258      0.19118453     1.7503258    
     15600   1.56           0              1.7447825      1.7447825      0.19108409     1.7447825    
     15800   1.58           0              1.7432517      1.7432517      0.19144509     1.7432517    
     16000   1.6            0              1.7399266      1.7399266      0.19184826     1.7399266    
     16200   1.62           0              1.7106012      1.7106012      0.19123119     1.7106012    
     16400   1.64           0              1.695151       1.695151       0.19135472     1.695151     
     16600   1.66           0              1.6786854      1.6786854      0.19093382     1.6786854    
     16800   1.68           0              1.6969851      1.6969851      0.19081853     1.6969851    
     17000   1.7            0              1.7089072      1.7089072      0.19147501     1.7089072    
     17200   1.72           0              1.6946156      1.6946156      0.19005002     1.6946156    
     17400   1.74           0              1.6753916      1.6753916      0.19029008     1.6753916    
     17600   1.76           0              1.6855813      1.6855813      0.19017416     1.6855813    
     17800   1.78           0              1.7411366      1.7411366      0.18964868     1.7411366    
     18000   1.8            0              1.7586887      1.7586887      0.19061189     1.7586887    
     18200   1.82           0              1.8136235      1.8136235      0.19023485     1.8136235    
     18400   1.84           0              1.8095695      1.8095695      0.19108269     1.8095695    
     18600   1.86           0              1.8361047      1.8361047      0.1913414      1.8361047    
     18800   1.88           0              1.8028977      1.8028977      0.19217502     1.8028977    
     19000   1.9            0              1.7895462      1.7895462      0.192866       1.7895462    
     19200   1.92           0              1.7833147      1.7833147      0.19272205     1.7833147    
     19400   1.94           0              1.7722783      1.7722783      0.1935626      1.7722783    
     19600   1.96           0              1.7878638      1.7878638      0.19387232     1.7878638    
     19800   1.98           0              1.7949879      1.7949879      0.19220848     1.7949879    
     20000   2              0              1.7753164      1.7753164      0.19262642     1.7753164    
     20200   2.02           0              1.7860947      1.7860947      0.19459156     1.7860947    
     20400   2.04           0              1.782285       1.782285       0.19471943     1.782285     
     20511   2.0511         0              1.7545376      1.7545376      0.19520322     1.7545376    
Loop time of 78.7753 on 1 procs for 20000 steps with 2048 atoms

Performance: 2.194 ns/day, 10.941 hours/ns, 253.887 timesteps/s, 519.960 katom-step/s
100.0% CPU use with 1 MPI tasks x 1 OpenMP threads

MPI task timing breakdown:
Section |  min time  |  avg time  |  max time  |%varavg| %total
---------------------------------------------------------------
Pair    | 20.34      | 20.34      | 20.34      |   0.0 | 25.82
Neigh   | 0          | 0          | 0          |   0.0 |  0.00
Comm    | 0.69211    | 0.69211    | 0.69211    |   0.0 |  0.88
Output  | 0.11507    | 0.11507    | 0.11507    |   0.0 |  0.15
Modify  | 57.535     | 57.535     | 57.535     |   0.0 | 73.04
Other   |            | 0.09343    |            |       |  0.12

Nlocal:           2048 ave        2048 max        2048 min
Histogram: 1 0 0 0 0 0 0 0 0 0
Nghost:           1732 ave        1732 max        1732 min
Histogram: 1 0 0 0 0 0 0 0 0 0
Neighs:              0 ave           0 max           0 min
Histogram: 1 0 0 0 0 0 0 0 0 0
FullNghs:        24576 ave       24576 max       24576 min
Histogram: 1 0 0 0 0 0 0 0 0 0

Total # of neighbors = 24576
Ave neighs/atom = 12
Neighbor list builds = 0
Dangerous builds = 0

print           "DYNAMICS_T${runtemp}_DONE"
DYNAMICS_T10_DONE
Total wall time: 0:01:18
