LAMMPS (10 Dec 2025 - Development - patch_10Dec2025-120-ga51f9ba0e7)
OMP_NUM_THREADS environment is not set. Defaulting to 1 thread.
  using 1 OpenMP thread(s) per MPI task
# Finite-T Langevin spin-dynamics stage for mp-754090 (Li4Fe2TeWO12). D is now DFT-derived
# (paramrudra jobs 49186/49187, constrained noncollinear+SOC canting probe) -- see
# in.mp754090_effective.lammps for the full J and D derivation, and the caveat that D's
# direction (y, in the arbitrary lab frame used for the probe) is a resolved-but-not-fully-3D
# DMI component, not a complete DMI vector fit. Anisotropy remains unprobed (set to 0).
#
# Run via run_scan_parallel_mp754090.sh, one temperature/seed per invocation:
#   -var runtemp <K> -var runseed <int>
#
# Same LAMMPS-build workaround as in.pdfeir_dynamics.lammps: hybrid/overlay segfaults with
# exactly 2 spin substyles on this build, padded to 3 with a zero-strength spin/magelec term.

units           metal
atom_style      spin
dimension       3
boundary        p p p
atom_modify     map array

read_restart    restart.mp754090_T0.equil
Reading restart file ...
  restart file = 10 Dec 2025, LAMMPS = 10 Dec 2025
  restoring atom style spin from restart
  triclinic box = (0 0 0) to (86.604109 72.44143 33.758371) with tilt (47.827887 47.809739 49.151162)
WARNING: Triclinic box skew is large. LAMMPS will run inefficiently. (src/domain.cpp:221)
  1 by 1 by 1 MPI processor grid
  restoring pair style hybrid/overlay from restart
  2048 atoms
  read_restart CPU = 0.002 seconds

variable        j_eff_eV equal 0.012058385
variable        d_shell equal 5.132075
variable        exch_a equal v_j_eff_eV*2.718281828/4.0
variable        rc_exch equal 5.25
variable        d_eV equal 0.00019324
variable        rc_dmi equal 5.25

pair_style      hybrid/overlay spin/exchange ${rc_exch} spin/dmi ${rc_dmi} spin/magelec ${rc_exch}
pair_style      hybrid/overlay spin/exchange 5.25 spin/dmi ${rc_dmi} spin/magelec ${rc_exch}
pair_style      hybrid/overlay spin/exchange 5.25 spin/dmi 5.25 spin/magelec ${rc_exch}
pair_style      hybrid/overlay spin/exchange 5.25 spin/dmi 5.25 spin/magelec 5.25
pair_coeff      * * spin/exchange exchange ${rc_exch} ${exch_a} 0.0 ${d_shell} offset yes
pair_coeff      * * spin/exchange exchange 5.25 ${exch_a} 0.0 ${d_shell} offset yes
pair_coeff      * * spin/exchange exchange 5.25 0.00819452220513194 0.0 ${d_shell} offset yes
pair_coeff      * * spin/exchange exchange 5.25 0.00819452220513194 0.0 5.132075 offset yes
pair_coeff      * * spin/dmi dmi ${rc_dmi} ${d_eV} 0.0 1.0 0.0
pair_coeff      * * spin/dmi dmi 5.25 ${d_eV} 0.0 1.0 0.0
pair_coeff      * * spin/dmi dmi 5.25 0.00019324 0.0 1.0 0.0
pair_coeff      * * spin/magelec magelec ${rc_exch} 0.0 1.0 1.0 1.0   # zero strength: segfault workaround only
pair_coeff      * * spin/magelec magelec 5.25 0.0 1.0 1.0 1.0   

neighbor        0.3 bin
neigh_modify    every 10 check yes delay 20

fix             1 all precession/spin zeeman 0.0 0.0 0.0 1.0
fix_modify      1 energy yes
fix             2 all langevin/spin ${runtemp} 0.05 ${runseed}
fix             2 all langevin/spin 150 0.05 ${runseed}
fix             2 all langevin/spin 150 0.05 21
fix             3 all nve/spin lattice frozen

timestep        0.0001

compute         out_mag all spin
compute         outsp all property/atom spx spy spz sp
thermo_style    custom step time temp pe etotal c_out_mag[4] c_out_mag[5]
thermo          200

dump            1 all custom 500 dump_mp754090_T${runtemp}_s${runseed}.lammpstrj type x y z c_outsp[1] c_outsp[2] c_outsp[3]
dump            1 all custom 500 dump_mp754090_T150_s${runseed}.lammpstrj type x y z c_outsp[1] c_outsp[2] c_outsp[3]
dump            1 all custom 500 dump_mp754090_T150_s21.lammpstrj type x y z c_outsp[1] c_outsp[2] c_outsp[3]

# Coarse first pass -- 20k steps @ dt=0.0001 ps = 2 ps, same length as pdfeir's first pass.
run             20000

CITE-CITE-CITE-CITE-CITE-CITE-CITE-CITE-CITE-CITE-CITE-CITE-CITE

Your simulation uses code contributions which should be cited:

- fix nve/spin command: https://doi.org/10.1016/j.jcp.2018.06.042

@article{tranchida2018massively,
title={Massively Parallel Symplectic Algorithm for Coupled Magnetic Spin    Dynamics and Molecular Dynamics},
author={Tranchida, J and Plimpton, S J and Thibaudeau, P and Thompson, A P},
journal={Journal of Computational Physics},
volume={372},
pages={406--425},
year={2018},
publisher={Elsevier}
doi={10.1016/j.jcp.2018.06.042}
}

CITE-CITE-CITE-CITE-CITE-CITE-CITE-CITE-CITE-CITE-CITE-CITE-CITE

Generated 0 of 0 mixed pair_coeff terms from geometric mixing rule
Neighbor list info ...
  update: every = 10 steps, delay = 20 steps, check = yes
  max neighbors/atom: 2000, page size: 100000
  master list distance cutoff = 5.55
  ghost atom cutoff = 5.55
  binsize = 2.775, bins = 66 44 13
  3 neighbor lists, perpetual/occasional/extra = 3 0 0
  (1) pair spin/exchange, perpetual
      attributes: full, newton on
      pair build: full/bin/atomonly
      stencil: full/bin/3d
      bin: standard
  (2) pair spin/dmi, perpetual, copy from (1)
      attributes: full, newton on
      pair build: copy
      stencil: none
      bin: none
  (3) pair spin/magelec, perpetual, copy from (1)
      attributes: full, newton on
      pair build: copy
      stencil: none
      bin: none
WARNING: Dump 1 includes no atom IDs and is not sorted by ID. This may complicate post-processing tasks or visualization (src/dump.cpp:220)
Per MPI rank memory allocation (min/avg/max) = 5.919 | 5.919 | 5.919 Mbytes
   Step          Time           Temp          PotEng         TotEng      c_out_mag[4]   c_out_mag[5] 
       511   0.0511         0             -4.2520525e-08 -4.2520525e-08  0.20312895    -4.2520525e-08
       600   0.06           0              2.4140258      2.4140258      0.19858671     2.4140258    
       800   0.08           0              6.8962268      6.8962268      0.19418051     6.8962268    
      1000   0.1            0              10.287779      10.287779      0.19060676     10.287779    
      1200   0.12           0              12.932113      12.932113      0.18954962     12.932113    
      1400   0.14           0              14.84164       14.84164       0.18722729     14.84164     
      1600   0.16           0              17.078312      17.078312      0.17951133     17.078312    
      1800   0.18           0              18.245569      18.245569      0.17358511     18.245569    
      2000   0.2            0              19.473858      19.473858      0.17470561     19.473858    
      2200   0.22           0              20.178875      20.178875      0.17205974     20.178875    
      2400   0.24           0              20.744366      20.744366      0.16728664     20.744366    
      2600   0.26           0              20.981923      20.981923      0.16264231     20.981923    
      2800   0.28           0              21.823469      21.823469      0.15819183     21.823469    
      3000   0.3            0              22.958277      22.958277      0.1517433      22.958277    
      3200   0.32           0              23.71004       23.71004       0.15304339     23.71004     
      3400   0.34           0              23.794178      23.794178      0.15531312     23.794178    
      3600   0.36           0              24.092715      24.092715      0.15686826     24.092715    
      3800   0.38           0              24.80833       24.80833       0.15114164     24.80833     
      4000   0.4            0              24.69142       24.69142       0.15153349     24.69142     
      4200   0.42           0              24.496111      24.496111      0.1563576      24.496111    
      4400   0.44           0              25.448645      25.448645      0.15102652     25.448645    
      4600   0.46           0              25.260812      25.260812      0.14876442     25.260812    
      4800   0.48           0              25.613828      25.613828      0.14782714     25.613828    
      5000   0.5            0              26.205923      26.205923      0.14855037     26.205923    
      5200   0.52           0              26.738796      26.738796      0.1463714      26.738796    
      5400   0.54           0              26.49757       26.49757       0.14482561     26.49757     
      5600   0.56           0              26.698372      26.698372      0.1417618      26.698372    
      5800   0.58           0              26.173053      26.173053      0.14421245     26.173053    
      6000   0.6            0              26.482302      26.482302      0.13870669     26.482302    
      6200   0.62           0              26.595049      26.595049      0.13091185     26.595049    
      6400   0.64           0              26.692979      26.692979      0.12982871     26.692979    
      6600   0.66           0              27.210071      27.210071      0.13364628     27.210071    
      6800   0.68           0              27.634339      27.634339      0.13006717     27.634339    
      7000   0.7            0              27.258776      27.258776      0.13160424     27.258776    
      7200   0.72           0              27.477287      27.477287      0.12947213     27.477287    
      7400   0.74           0              27.792692      27.792692      0.12962538     27.792692    
      7600   0.76           0              27.842229      27.842229      0.12913811     27.842229    
      7800   0.78           0              27.599476      27.599476      0.125392       27.599476    
      8000   0.8            0              27.630457      27.630457      0.12770697     27.630457    
      8200   0.82           0              27.69376       27.69376       0.12430685     27.69376     
      8400   0.84           0              27.869818      27.869818      0.12747386     27.869818    
      8600   0.86           0              28.050333      28.050333      0.12283274     28.050333    
      8800   0.88           0              28.079623      28.079623      0.125841       28.079623    
      9000   0.9            0              28.514807      28.514807      0.12665706     28.514807    
      9200   0.92           0              28.624008      28.624008      0.12622957     28.624008    
      9400   0.94           0              28.876856      28.876856      0.12850626     28.876856    
      9600   0.96           0              28.65201       28.65201       0.12634599     28.65201     
      9800   0.98           0              29.143678      29.143678      0.12678937     29.143678    
     10000   1              0              28.869533      28.869533      0.1287709      28.869533    
     10200   1.02           0              29.207216      29.207216      0.13112978     29.207216    
     10400   1.04           0              29.449807      29.449807      0.13395579     29.449807    
     10600   1.06           0              29.500912      29.500912      0.13602298     29.500912    
     10800   1.08           0              29.210303      29.210303      0.13171199     29.210303    
     11000   1.1            0              29.916471      29.916471      0.12976295     29.916471    
     11200   1.12           0              29.625775      29.625775      0.13155076     29.625775    
     11400   1.14           0              29.611521      29.611521      0.13086379     29.611521    
     11600   1.16           0              29.696517      29.696517      0.13295903     29.696517    
     11800   1.18           0              30.103921      30.103921      0.12732022     30.103921    
     12000   1.2            0              30.120605      30.120605      0.12566213     30.120605    
     12200   1.22           0              30.007017      30.007017      0.12551409     30.007017    
     12400   1.24           0              29.70112       29.70112       0.12259099     29.70112     
     12600   1.26           0              29.601021      29.601021      0.11687757     29.601021    
     12800   1.28           0              29.728121      29.728121      0.11410025     29.728121    
     13000   1.3            0              29.53202       29.53202       0.11766379     29.53202     
     13200   1.32           0              29.53981       29.53981       0.11498901     29.53981     
     13400   1.34           0              29.957502      29.957502      0.11595406     29.957502    
     13600   1.36           0              30.077155      30.077155      0.11331435     30.077155    
     13800   1.38           0              30.041591      30.041591      0.11817126     30.041591    
     14000   1.4            0              29.880639      29.880639      0.11855892     29.880639    
     14200   1.42           0              29.578829      29.578829      0.12171359     29.578829    
     14400   1.44           0              29.4522        29.4522        0.12569338     29.4522      
     14600   1.46           0              29.612987      29.612987      0.12273475     29.612987    
     14800   1.48           0              29.388272      29.388272      0.1242309      29.388272    
     15000   1.5            0              29.588709      29.588709      0.11623827     29.588709    
     15200   1.52           0              29.661427      29.661427      0.11795308     29.661427    
     15400   1.54           0              29.742238      29.742238      0.11432108     29.742238    
     15600   1.56           0              29.928707      29.928707      0.11959567     29.928707    
     15800   1.58           0              29.757778      29.757778      0.12527813     29.757778    
     16000   1.6            0              30.18835       30.18835       0.12696551     30.18835     
     16200   1.62           0              30.253218      30.253218      0.1224018      30.253218    
     16400   1.64           0              30.633585      30.633585      0.12103748     30.633585    
     16600   1.66           0              30.576551      30.576551      0.1170489      30.576551    
     16800   1.68           0              30.373357      30.373357      0.12278328     30.373357    
     17000   1.7            0              29.736089      29.736089      0.12403135     29.736089    
     17200   1.72           0              29.161917      29.161917      0.12015589     29.161917    
     17400   1.74           0              28.797224      28.797224      0.12255774     28.797224    
     17600   1.76           0              29.03048       29.03048       0.12456048     29.03048     
     17800   1.78           0              29.399607      29.399607      0.12808526     29.399607    
     18000   1.8            0              29.729915      29.729915      0.1290717      29.729915    
     18200   1.82           0              30.375401      30.375401      0.12703353     30.375401    
     18400   1.84           0              30.537366      30.537366      0.12682694     30.537366    
     18600   1.86           0              30.120303      30.120303      0.12322061     30.120303    
     18800   1.88           0              30.363264      30.363264      0.12544856     30.363264    
     19000   1.9            0              30.117478      30.117478      0.12696517     30.117478    
     19200   1.92           0              30.347649      30.347649      0.12589341     30.347649    
     19400   1.94           0              30.280623      30.280623      0.12758064     30.280623    
     19600   1.96           0              30.189103      30.189103      0.13020443     30.189103    
     19800   1.98           0              30.440424      30.440424      0.12784713     30.440424    
     20000   2              0              30.347256      30.347256      0.12941964     30.347256    
     20200   2.02           0              30.230315      30.230315      0.13579467     30.230315    
     20400   2.04           0              30.229902      30.229902      0.14120902     30.229902    
     20511   2.0511         0              30.106963      30.106963      0.14289978     30.106963    
Loop time of 78.2799 on 1 procs for 20000 steps with 2048 atoms

Performance: 2.207 ns/day, 10.872 hours/ns, 255.493 timesteps/s, 523.251 katom-step/s
99.9% CPU use with 1 MPI tasks x 1 OpenMP threads

MPI task timing breakdown:
Section |  min time  |  avg time  |  max time  |%varavg| %total
---------------------------------------------------------------
Pair    | 20.283     | 20.283     | 20.283     |   0.0 | 25.91
Neigh   | 0          | 0          | 0          |   0.0 |  0.00
Comm    | 0.68878    | 0.68878    | 0.68878    |   0.0 |  0.88
Output  | 0.11479    | 0.11479    | 0.11479    |   0.0 |  0.15
Modify  | 57.096     | 57.096     | 57.096     |   0.0 | 72.94
Other   |            | 0.09745    |            |       |  0.12

Nlocal:           2048 ave        2048 max        2048 min
Histogram: 1 0 0 0 0 0 0 0 0 0
Nghost:           1732 ave        1732 max        1732 min
Histogram: 1 0 0 0 0 0 0 0 0 0
Neighs:              0 ave           0 max           0 min
Histogram: 1 0 0 0 0 0 0 0 0 0
FullNghs:        24576 ave       24576 max       24576 min
Histogram: 1 0 0 0 0 0 0 0 0 0

Total # of neighbors = 24576
Ave neighs/atom = 12
Neighbor list builds = 0
Dangerous builds = 0

print           "DYNAMICS_T${runtemp}_DONE"
DYNAMICS_T150_DONE
Total wall time: 0:01:18
