LAMMPS (10 Dec 2025 - Development - patch_10Dec2025-120-ga51f9ba0e7)
OMP_NUM_THREADS environment is not set. Defaulting to 1 thread.
  using 1 OpenMP thread(s) per MPI task
Reading restart file ...
  restart file = 10 Dec 2025, LAMMPS = 10 Dec 2025
  restoring atom style spin from restart
  triclinic box = (0 0 0) to (86.604109 72.44143 33.758371) with tilt (47.827887 47.809739 49.151162)
WARNING: Triclinic box skew is large. LAMMPS will run inefficiently. (src/domain.cpp:221)
  1 by 1 by 1 MPI processor grid
  restoring pair style hybrid/overlay from restart
  2048 atoms
  read_restart CPU = 0.001 seconds

CITE-CITE-CITE-CITE-CITE-CITE-CITE-CITE-CITE-CITE-CITE-CITE-CITE

Your simulation uses code contributions which should be cited:
- fix nve/spin command: https://doi.org/10.1016/j.jcp.2018.06.042
The log file lists these citations in BibTeX format.

CITE-CITE-CITE-CITE-CITE-CITE-CITE-CITE-CITE-CITE-CITE-CITE-CITE

Generated 0 of 0 mixed pair_coeff terms from geometric mixing rule
Neighbor list info ...
  update: every = 10 steps, delay = 20 steps, check = yes
  max neighbors/atom: 2000, page size: 100000
  master list distance cutoff = 5.55
  ghost atom cutoff = 5.55
  binsize = 2.775, bins = 66 44 13
  3 neighbor lists, perpetual/occasional/extra = 3 0 0
  (1) pair spin/exchange, perpetual
      attributes: full, newton on
      pair build: full/bin/atomonly
      stencil: full/bin/3d
      bin: standard
  (2) pair spin/dmi, perpetual, copy from (1)
      attributes: full, newton on
      pair build: copy
      stencil: none
      bin: none
  (3) pair spin/magelec, perpetual, copy from (1)
      attributes: full, newton on
      pair build: copy
      stencil: none
      bin: none
WARNING: Dump 1 includes no atom IDs and is not sorted by ID. This may complicate post-processing tasks or visualization (src/dump.cpp:220)
Setting up Verlet run ...
  Unit style    : metal
  Current step  : 511
  Time step     : 0.0001
Per MPI rank memory allocation (min/avg/max) = 5.919 | 5.919 | 5.919 Mbytes
   Step          Time           Temp          PotEng         TotEng      c_out_mag[4]   c_out_mag[5] 
       511   0.0511         0             -4.2520525e-08 -4.2520525e-08  0.20312895    -4.2520525e-08
       600   0.06           0              1.2152165      1.2152165      0.20048964     1.2152165    
       800   0.08           0              3.5236031      3.5236031      0.19888027     3.5236031    
      1000   0.1            0              5.2918605      5.2918605      0.19731007     5.2918605    
      1200   0.12           0              6.6548116      6.6548116      0.19768003     6.6548116    
      1400   0.14           0              7.6879579      7.6879579      0.19654969     7.6879579    
      1600   0.16           0              8.8609337      8.8609337      0.19205126     8.8609337    
      1800   0.18           0              9.4383764      9.4383764      0.18838504     9.4383764    
      2000   0.2            0              10.117842      10.117842      0.18842488     10.117842    
      2200   0.22           0              10.497456      10.497456      0.18682573     10.497456    
      2400   0.24           0              10.849068      10.849068      0.18336911     10.849068    
      2600   0.26           0              10.95725       10.95725       0.18011982     10.95725     
      2800   0.28           0              11.167846      11.167846      0.17889418     11.167846    
      3000   0.3            0              11.801867      11.801867      0.17402322     11.801867    
      3200   0.32           0              12.038304      12.038304      0.17607704     12.038304    
      3400   0.34           0              11.878476      11.878476      0.17619324     11.878476    
      3600   0.36           0              12.157454      12.157454      0.17777643     12.157454    
      3800   0.38           0              12.246946      12.246946      0.17500758     12.246946    
      4000   0.4            0              12.261231      12.261231      0.17526641     12.261231    
      4200   0.42           0              12.342351      12.342351      0.17706593     12.342351    
      4400   0.44           0              12.742183      12.742183      0.17592036     12.742183    
      4600   0.46           0              12.771893      12.771893      0.17473838     12.771893    
      4800   0.48           0              12.747715      12.747715      0.17632381     12.747715    
      5000   0.5            0              12.887466      12.887466      0.17880459     12.887466    
      5200   0.52           0              13.247163      13.247163      0.17711556     13.247163    
      5400   0.54           0              13.193518      13.193518      0.17647011     13.193518    
      5600   0.56           0              13.227508      13.227508      0.17493243     13.227508    
      5800   0.58           0              13.047849      13.047849      0.17912597     13.047849    
      6000   0.6            0              13.096996      13.096996      0.17461137     13.096996    
      6200   0.62           0              12.907891      12.907891      0.17134006     12.907891    
      6400   0.64           0              13.152123      13.152123      0.17006373     13.152123    
      6600   0.66           0              13.157556      13.157556      0.17220494     13.157556    
      6800   0.68           0              13.129161      13.129161      0.17173182     13.129161    
      7000   0.7            0              13.255679      13.255679      0.17100653     13.255679    
      7200   0.72           0              13.372706      13.372706      0.17017651     13.372706    
      7400   0.74           0              13.527231      13.527231      0.17357076     13.527231    
      7600   0.76           0              13.38726       13.38726       0.1742324      13.38726     
      7800   0.78           0              13.426363      13.426363      0.17035097     13.426363    
      8000   0.8            0              13.480133      13.480133      0.17216681     13.480133    
      8200   0.82           0              13.467523      13.467523      0.16768728     13.467523    
      8400   0.84           0              13.263252      13.263252      0.1679021      13.263252    
      8600   0.86           0              13.464823      13.464823      0.16545721     13.464823    
      8800   0.88           0              13.440833      13.440833      0.16635135     13.440833    
      9000   0.9            0              13.341487      13.341487      0.16877445     13.341487    
      9200   0.92           0              13.302976      13.302976      0.168198       13.302976    
      9400   0.94           0              13.21422       13.21422       0.16737244     13.21422     
      9600   0.96           0              13.150819      13.150819      0.16387579     13.150819    
      9800   0.98           0              13.408118      13.408118      0.16624003     13.408118    
     10000   1              0              13.412464      13.412464      0.16793956     13.412464    
     10200   1.02           0              13.531589      13.531589      0.17033457     13.531589    
     10400   1.04           0              13.505809      13.505809      0.17139382     13.505809    
     10600   1.06           0              13.561195      13.561195      0.1701301      13.561195    
     10800   1.08           0              13.210959      13.210959      0.16929754     13.210959    
     11000   1.1            0              13.028751      13.028751      0.16947418     13.028751    
     11200   1.12           0              13.16344       13.16344       0.1687852      13.16344     
     11400   1.14           0              13.569099      13.569099      0.16372898     13.569099    
     11600   1.16           0              13.304763      13.304763      0.16610688     13.304763    
     11800   1.18           0              13.519492      13.519492      0.16454148     13.519492    
     12000   1.2            0              13.384703      13.384703      0.16249339     13.384703    
     12200   1.22           0              13.446735      13.446735      0.16190861     13.446735    
     12400   1.24           0              13.649008      13.649008      0.16226979     13.649008    
     12600   1.26           0              13.463623      13.463623      0.15990878     13.463623    
     12800   1.28           0              13.300368      13.300368      0.15575767     13.300368    
     13000   1.3            0              13.079099      13.079099      0.15841322     13.079099    
     13200   1.32           0              13.073325      13.073325      0.15609251     13.073325    
     13400   1.34           0              13.231176      13.231176      0.15680183     13.231176    
     13600   1.36           0              13.250248      13.250248      0.15852094     13.250248    
     13800   1.38           0              13.4906        13.4906        0.16142565     13.4906      
     14000   1.4            0              13.398502      13.398502      0.16100725     13.398502    
     14200   1.42           0              13.551717      13.551717      0.16423847     13.551717    
     14400   1.44           0              13.578242      13.578242      0.16578408     13.578242    
     14600   1.46           0              13.763286      13.763286      0.16422515     13.763286    
     14800   1.48           0              13.936794      13.936794      0.16140259     13.936794    
     15000   1.5            0              14.092862      14.092862      0.15657595     14.092862    
     15200   1.52           0              14.041018      14.041018      0.15670506     14.041018    
     15400   1.54           0              14.185686      14.185686      0.15594135     14.185686    
     15600   1.56           0              13.950108      13.950108      0.15347551     13.950108    
     15800   1.58           0              13.848807      13.848807      0.1547759      13.848807    
     16000   1.6            0              13.935195      13.935195      0.154779       13.935195    
     16200   1.62           0              13.921452      13.921452      0.15373346     13.921452    
     16400   1.64           0              13.950948      13.950948      0.15585082     13.950948    
     16600   1.66           0              13.921052      13.921052      0.15562502     13.921052    
     16800   1.68           0              13.746187      13.746187      0.15687587     13.746187    
     17000   1.7            0              13.566214      13.566214      0.15716502     13.566214    
     17200   1.72           0              13.356703      13.356703      0.15524089     13.356703    
     17400   1.74           0              13.21757       13.21757       0.15604954     13.21757     
     17600   1.76           0              13.450474      13.450474      0.15531099     13.450474    
     17800   1.78           0              13.630222      13.630222      0.15588379     13.630222    
     18000   1.8            0              13.750673      13.750673      0.158286       13.750673    
     18200   1.82           0              13.903065      13.903065      0.15846613     13.903065    
     18400   1.84           0              14.161517      14.161517      0.15899191     14.161517    
     18600   1.86           0              14.229105      14.229105      0.15979004     14.229105    
     18800   1.88           0              14.061056      14.061056      0.16151874     14.061056    
     19000   1.9            0              14.227145      14.227145      0.16178398     14.227145    
     19200   1.92           0              14.377154      14.377154      0.16009105     14.377154    
     19400   1.94           0              14.312736      14.312736      0.16365394     14.312736    
     19600   1.96           0              14.3077        14.3077        0.16526742     14.3077      
     19800   1.98           0              14.351409      14.351409      0.15995647     14.351409    
     20000   2              0              14.337504      14.337504      0.16046096     14.337504    
     20200   2.02           0              14.354581      14.354581      0.16691663     14.354581    
     20400   2.04           0              14.310498      14.310498      0.16476612     14.310498    
     20511   2.0511         0              14.191137      14.191137      0.16745821     14.191137    
Loop time of 78.6515 on 1 procs for 20000 steps with 2048 atoms

Performance: 2.197 ns/day, 10.924 hours/ns, 254.286 timesteps/s, 520.778 katom-step/s
100.0% CPU use with 1 MPI tasks x 1 OpenMP threads

MPI task timing breakdown:
Section |  min time  |  avg time  |  max time  |%varavg| %total
---------------------------------------------------------------
Pair    | 20.812     | 20.812     | 20.812     |   0.0 | 26.46
Neigh   | 0          | 0          | 0          |   0.0 |  0.00
Comm    | 0.68823    | 0.68823    | 0.68823    |   0.0 |  0.88
Output  | 0.11494    | 0.11494    | 0.11494    |   0.0 |  0.15
Modify  | 56.946     | 56.946     | 56.946     |   0.0 | 72.40
Other   |            | 0.08956    |            |       |  0.11

Nlocal:           2048 ave        2048 max        2048 min
Histogram: 1 0 0 0 0 0 0 0 0 0
Nghost:           1732 ave        1732 max        1732 min
Histogram: 1 0 0 0 0 0 0 0 0 0
Neighs:              0 ave           0 max           0 min
Histogram: 1 0 0 0 0 0 0 0 0 0
FullNghs:        24576 ave       24576 max       24576 min
Histogram: 1 0 0 0 0 0 0 0 0 0

Total # of neighbors = 24576
Ave neighs/atom = 12
Neighbor list builds = 0
Dangerous builds = 0
DYNAMICS_T75_DONE
Total wall time: 0:01:18
