LAMMPS (10 Dec 2025 - Development - patch_10Dec2025-120-ga51f9ba0e7)
OMP_NUM_THREADS environment is not set. Defaulting to 1 thread.
  using 1 OpenMP thread(s) per MPI task
Reading restart file ...
  restart file = 10 Dec 2025, LAMMPS = 10 Dec 2025
  restoring atom style spin from restart
  triclinic box = (0 0 0) to (86.604109 72.44143 33.758371) with tilt (47.827887 47.809739 49.151162)
WARNING: Triclinic box skew is large. LAMMPS will run inefficiently. (src/domain.cpp:221)
  1 by 1 by 1 MPI processor grid
  restoring pair style hybrid/overlay from restart
  2048 atoms
  read_restart CPU = 0.001 seconds

CITE-CITE-CITE-CITE-CITE-CITE-CITE-CITE-CITE-CITE-CITE-CITE-CITE

Your simulation uses code contributions which should be cited:
- fix nve/spin command: https://doi.org/10.1016/j.jcp.2018.06.042
The log file lists these citations in BibTeX format.

CITE-CITE-CITE-CITE-CITE-CITE-CITE-CITE-CITE-CITE-CITE-CITE-CITE

Generated 0 of 0 mixed pair_coeff terms from geometric mixing rule
Neighbor list info ...
  update: every = 10 steps, delay = 20 steps, check = yes
  max neighbors/atom: 2000, page size: 100000
  master list distance cutoff = 5.55
  ghost atom cutoff = 5.55
  binsize = 2.775, bins = 66 44 13
  3 neighbor lists, perpetual/occasional/extra = 3 0 0
  (1) pair spin/exchange, perpetual
      attributes: full, newton on
      pair build: full/bin/atomonly
      stencil: full/bin/3d
      bin: standard
  (2) pair spin/dmi, perpetual, copy from (1)
      attributes: full, newton on
      pair build: copy
      stencil: none
      bin: none
  (3) pair spin/magelec, perpetual, copy from (1)
      attributes: full, newton on
      pair build: copy
      stencil: none
      bin: none
WARNING: Dump 1 includes no atom IDs and is not sorted by ID. This may complicate post-processing tasks or visualization (src/dump.cpp:220)
Setting up Verlet run ...
  Unit style    : metal
  Current step  : 511
  Time step     : 0.0001
Per MPI rank memory allocation (min/avg/max) = 5.919 | 5.919 | 5.919 Mbytes
   Step          Time           Temp          PotEng         TotEng      c_out_mag[4]   c_out_mag[5] 
       511   0.0511         0             -4.2520525e-08 -4.2520525e-08  0.20312895    -4.2520525e-08
       600   0.06           0              3.9856986      3.9856986      0.19624152     3.9856986    
       800   0.08           0              11.171642      11.171642      0.1879164      11.171642    
      1000   0.1            0              16.496683      16.496683      0.18157244     16.496683    
      1200   0.12           0              20.68534       20.68534       0.1779408      20.68534     
      1400   0.14           0              23.571861      23.571861      0.17411394     23.571861    
      1600   0.16           0              26.921053      26.921053      0.16292636     26.921053    
      1800   0.18           0              28.73871       28.73871       0.1551043      28.73871     
      2000   0.2            0              30.511056      30.511056      0.15373044     30.511056    
      2200   0.22           0              31.822784      31.822784      0.15055431     31.822784    
      2400   0.24           0              32.920023      32.920023      0.14640475     32.920023    
      2600   0.26           0              33.875828      33.875828      0.14044791     33.875828    
      2800   0.28           0              35.386489      35.386489      0.13500662     35.386489    
      3000   0.3            0              35.988518      35.988518      0.13044292     35.988518    
      3200   0.32           0              38.048472      38.048472      0.1281862      38.048472    
      3400   0.34           0              38.479917      38.479917      0.13020101     38.479917    
      3600   0.36           0              38.617368      38.617368      0.13175031     38.617368    
      3800   0.38           0              40.27415       40.27415       0.12636471     40.27415     
      4000   0.4            0              40.619303      40.619303      0.12793792     40.619303    
      4200   0.42           0              41.401563      41.401563      0.1358351      41.401563    
      4400   0.44           0              41.864074      41.864074      0.13187776     41.864074    
      4600   0.46           0              42.664645      42.664645      0.12635065     42.664645    
      4800   0.48           0              43.351229      43.351229      0.12153559     43.351229    
      5000   0.5            0              44.000714      44.000714      0.11715252     44.000714    
      5200   0.52           0              44.67253       44.67253       0.10889611     44.67253     
      5400   0.54           0              45.127919      45.127919      0.10743358     45.127919    
      5600   0.56           0              45.687727      45.687727      0.10241607     45.687727    
      5800   0.58           0              46.133094      46.133094      0.10892553     46.133094    
      6000   0.6            0              46.125726      46.125726      0.099881191    46.125726    
      6200   0.62           0              46.494602      46.494602      0.097628021    46.494602    
      6400   0.64           0              46.742433      46.742433      0.09590063     46.742433    
      6600   0.66           0              47.519619      47.519619      0.10337024     47.519619    
      6800   0.68           0              48.442898      48.442898      0.10000525     48.442898    
      7000   0.7            0              48.158649      48.158649      0.10199204     48.158649    
      7200   0.72           0              48.265599      48.265599      0.10343853     48.265599    
      7400   0.74           0              47.942908      47.942908      0.10693228     47.942908    
      7600   0.76           0              47.789711      47.789711      0.10682567     47.789711    
      7800   0.78           0              47.317659      47.317659      0.10950561     47.317659    
      8000   0.8            0              47.588078      47.588078      0.10644934     47.588078    
      8200   0.82           0              47.360866      47.360866      0.10499024     47.360866    
      8400   0.84           0              47.488156      47.488156      0.1017338      47.488156    
      8600   0.86           0              47.048069      47.048069      0.1032836      47.048069    
      8800   0.88           0              46.998487      46.998487      0.10013783     46.998487    
      9000   0.9            0              47.046775      47.046775      0.10668544     47.046775    
      9200   0.92           0              47.238513      47.238513      0.098183643    47.238513    
      9400   0.94           0              46.725906      46.725906      0.092904399    46.725906    
      9600   0.96           0              47.296284      47.296284      0.085573794    47.296284    
      9800   0.98           0              47.866928      47.866928      0.085826924    47.866928    
     10000   1              0              48.164517      48.164517      0.08847958     48.164517    
     10200   1.02           0              48.079979      48.079979      0.087312612    48.079979    
     10400   1.04           0              47.689173      47.689173      0.08580768     47.689173    
     10600   1.06           0              47.248023      47.248023      0.086268948    47.248023    
     10800   1.08           0              47.509414      47.509414      0.086906924    47.509414    
     11000   1.1            0              47.610643      47.610643      0.091162823    47.610643    
     11200   1.12           0              48.495358      48.495358      0.084321907    48.495358    
     11400   1.14           0              48.495224      48.495224      0.086536612    48.495224    
     11600   1.16           0              48.754265      48.754265      0.081982871    48.754265    
     11800   1.18           0              48.913244      48.913244      0.073225412    48.913244    
     12000   1.2            0              49.100517      49.100517      0.074648342    49.100517    
     12200   1.22           0              49.373616      49.373616      0.07103723     49.373616    
     12400   1.24           0              49.896435      49.896435      0.067685203    49.896435    
     12600   1.26           0              50.008874      50.008874      0.067864997    50.008874    
     12800   1.28           0              50.210502      50.210502      0.074913677    50.210502    
     13000   1.3            0              50.610885      50.610885      0.074908877    50.610885    
     13200   1.32           0              51.24142       51.24142       0.071017475    51.24142     
     13400   1.34           0              51.420499      51.420499      0.069803903    51.420499    
     13600   1.36           0              51.669987      51.669987      0.071119881    51.669987    
     13800   1.38           0              51.606086      51.606086      0.077601178    51.606086    
     14000   1.4            0              50.964047      50.964047      0.073502483    50.964047    
     14200   1.42           0              50.256719      50.256719      0.075845883    50.256719    
     14400   1.44           0              50.751693      50.751693      0.080125491    50.751693    
     14600   1.46           0              50.610141      50.610141      0.084510354    50.610141    
     14800   1.48           0              50.342772      50.342772      0.081809063    50.342772    
     15000   1.5            0              50.345981      50.345981      0.084115284    50.345981    
     15200   1.52           0              49.810739      49.810739      0.087681204    49.810739    
     15400   1.54           0              50.245633      50.245633      0.091889925    50.245633    
     15600   1.56           0              50.275174      50.275174      0.087987148    50.275174    
     15800   1.58           0              50.312915      50.312915      0.08050577     50.312915    
     16000   1.6            0              51.085036      51.085036      0.077742598    51.085036    
     16200   1.62           0              50.959961      50.959961      0.080284833    50.959961    
     16400   1.64           0              50.488046      50.488046      0.078463449    50.488046    
     16600   1.66           0              50.06023       50.06023       0.075887891    50.06023     
     16800   1.68           0              50.541925      50.541925      0.078829021    50.541925    
     17000   1.7            0              50.434424      50.434424      0.076124398    50.434424    
     17200   1.72           0              50.514443      50.514443      0.078388209    50.514443    
     17400   1.74           0              50.672606      50.672606      0.076293708    50.672606    
     17600   1.76           0              50.945618      50.945618      0.084405426    50.945618    
     17800   1.78           0              51.11148       51.11148       0.08250992     51.11148     
     18000   1.8            0              51.592772      51.592772      0.083146012    51.592772    
     18200   1.82           0              51.542972      51.542972      0.079384266    51.542972    
     18400   1.84           0              51.273042      51.273042      0.071526854    51.273042    
     18600   1.86           0              51.104279      51.104279      0.069261701    51.104279    
     18800   1.88           0              51.081339      51.081339      0.063997617    51.081339    
     19000   1.9            0              50.687139      50.687139      0.065378387    50.687139    
     19200   1.92           0              50.822237      50.822237      0.067433331    50.822237    
     19400   1.94           0              50.749906      50.749906      0.06636962     50.749906    
     19600   1.96           0              51.137914      51.137914      0.063482186    51.137914    
     19800   1.98           0              51.695144      51.695144      0.064268963    51.695144    
     20000   2              0              51.631244      51.631244      0.060193129    51.631244    
     20200   2.02           0              52.301587      52.301587      0.072179576    52.301587    
     20400   2.04           0              52.222509      52.222509      0.073337625    52.222509    
     20511   2.0511         0              51.954665      51.954665      0.07293652     51.954665    
Loop time of 78.4728 on 1 procs for 20000 steps with 2048 atoms

Performance: 2.202 ns/day, 10.899 hours/ns, 254.866 timesteps/s, 521.965 katom-step/s
100.0% CPU use with 1 MPI tasks x 1 OpenMP threads

MPI task timing breakdown:
Section |  min time  |  avg time  |  max time  |%varavg| %total
---------------------------------------------------------------
Pair    | 20.525     | 20.525     | 20.525     |   0.0 | 26.16
Neigh   | 0          | 0          | 0          |   0.0 |  0.00
Comm    | 0.6871     | 0.6871     | 0.6871     |   0.0 |  0.88
Output  | 0.11416    | 0.11416    | 0.11416    |   0.0 |  0.15
Modify  | 57.055     | 57.055     | 57.055     |   0.0 | 72.71
Other   |            | 0.09185    |            |       |  0.12

Nlocal:           2048 ave        2048 max        2048 min
Histogram: 1 0 0 0 0 0 0 0 0 0
Nghost:           1732 ave        1732 max        1732 min
Histogram: 1 0 0 0 0 0 0 0 0 0
Neighs:              0 ave           0 max           0 min
Histogram: 1 0 0 0 0 0 0 0 0 0
FullNghs:        24576 ave       24576 max       24576 min
Histogram: 1 0 0 0 0 0 0 0 0 0

Total # of neighbors = 24576
Ave neighs/atom = 12
Neighbor list builds = 0
Dangerous builds = 0
DYNAMICS_T250_DONE
Total wall time: 0:01:18
