No protocol specified
No protocol specified
LAMMPS (22 Jul 2025 - Update 4)
OMP_NUM_THREADS environment is not set. Defaulting to 1 thread.
  using 1 OpenMP thread(s) per MPI task
Lattice spacing in x,y,z = 4.0725 2.351259 2.715
Created orthogonal box = (0 0 -1.3575) to (407.25 235.1259 1.3575)
  1 by 1 by 1 MPI processor grid
Created 15000 atoms
  using lattice units in orthogonal box = (0 0 -1.3575) to (407.25 235.1259 1.3575)
  create_atoms CPU = 0.005 seconds
Setting atom values ...
  15000 settings made for spin/atom/random

CITE-CITE-CITE-CITE-CITE-CITE-CITE-CITE-CITE-CITE-CITE-CITE-CITE

Your simulation uses code contributions which should be cited:
- fix nve/spin command: doi:10.1016/j.jcp.2018.06.042
- min_style spin/lbfgs command: doi:10.48550/arXiv.1904.02669
The log file lists these citations in BibTeX format.

CITE-CITE-CITE-CITE-CITE-CITE-CITE-CITE-CITE-CITE-CITE-CITE-CITE

Switching to 'neigh_modify every 1 delay 0 check yes' setting during minimization
WARNING: Line search incompatible with gneb (src/SPIN/min_spin_lbfgs.cpp:107)
Generated 0 of 0 mixed pair_coeff terms from geometric mixing rule
Neighbor list info ...
  update: every = 1 steps, delay = 0 steps, check = yes
  max neighbors/atom: 2000, page size: 100000
  master list distance cutoff = 3.558
  ghost atom cutoff = 3.558
  binsize = 1.779, bins = 229 133 2
  2 neighbor lists, perpetual/occasional/extra = 2 0 0
  (1) pair spin/exchange, perpetual
      attributes: full, newton on
      pair build: full/bin/atomonly
      stencil: full/bin/3d
      bin: standard
  (2) pair spin/dmi, perpetual, copy from (1)
      attributes: full, newton on
      pair build: copy
      stencil: none
      bin: none
WARNING: Dump 1 includes no atom IDs and is not sorted by ID. This may complicate post-processing tasks or visualization (src/dump.cpp:220)
Setting up spin/lbfgs style minimization ...
  Unit style    : metal
  Current step  : 0
Per MPI rank memory allocation (min/avg/max) = 6.209 | 6.209 | 6.209 Mbytes
   Step         PotEng         TotEng    
         0   169.05231      169.05231    
       200  -0.79976084    -0.79976084   
       400  -0.89317439    -0.89317439   
       600  -0.92045962    -0.92045962   
       800  -0.92580257    -0.92580257   
      1000  -0.93831745    -0.93831745   
      1200  -0.94869699    -0.94869699   
      1400  -0.94974921    -0.94974921   
      1600  -0.95012565    -0.95012565   
      1800  -0.95098828    -0.95098828   
      2000  -0.95325235    -0.95325235   
      2200  -0.95397276    -0.95397276   
      2400  -0.95412005    -0.95412005   
      2600  -0.96602398    -0.96602398   
      2800  -0.96988844    -0.96988844   
      3000  -0.97170304    -0.97170304   
      3200  -0.97277174    -0.97277174   
      3400  -0.98205909    -0.98205909   
      3600  -0.98807248    -0.98807248   
      3800  -0.99258194    -0.99258194   
      4000  -0.99374133    -0.99374133   
      4200  -0.99393388    -0.99393388   
      4400  -0.99395784    -0.99395784   
      4584  -0.99395961    -0.99395961   
Loop time of 50.6401 on 1 procs for 4584 steps with 15000 atoms

99.9% CPU use with 1 MPI tasks x 1 OpenMP threads

Minimization stats:
  Stopping criterion = energy tolerance
  Energy initial, next-to-last, final = 
      169.052311740934 -0.993959610222147 -0.993959612847866
  Force two-norm initial, final = 0 0
  Force max component initial, final = 0 0
  Final line search alpha, max atom move = 0 0
  Iterations, force evaluations = 4584 4584

MPI task timing breakdown:
Section |  min time  |  avg time  |  max time  |%varavg| %total
---------------------------------------------------------------
Pair    | 40.985     | 40.985     | 40.985     |   0.0 | 80.93
Neigh   | 0          | 0          | 0          |   0.0 |  0.00
Comm    | 0.13472    | 0.13472    | 0.13472    |   0.0 |  0.27
Output  | 0.23904    | 0.23904    | 0.23904    |   0.0 |  0.47
Modify  | 1.1781     | 1.1781     | 1.1781     |   0.0 |  2.33
Other   |            | 8.104      |            |       | 16.00

Nlocal:          15000 ave       15000 max       15000 min
Histogram: 1 0 0 0 0 0 0 0 0 0
Nghost:            707 ave         707 max         707 min
Histogram: 1 0 0 0 0 0 0 0 0 0
Neighs:              0 ave           0 max           0 min
Histogram: 1 0 0 0 0 0 0 0 0 0
FullNghs:        90000 ave       90000 max       90000 min
Histogram: 1 0 0 0 0 0 0 0 0 0

Total # of neighbors = 90000
Ave neighs/atom = 6
Neighbor list builds = 0
Dangerous builds = 0
Total wall time: 0:00:50
