# mp-754090 v4 finite-T Langevin sweep: 12-neighbour single-J model (build_mp754090_model.py).
# J = 2.7836 meV on all 12 Fe-Fe bonds within 5.5 A (tight pair dE = 16 J, run-0 verified);
# exchange-only by default; -var dmi <eV> adds spin/dmi of that strength along y (control only, see
# the builder docstring for why this cannot be calibrated to the DFT probe).
units           metal
atom_style      spin
dimension       3
boundary        p p p
atom_modify     map array
read_data       mp754090_fe_v4.data
variable        repx index 16                           # replication: 16 8 8 -> 2048 Fe spins
variable        repy index 8                            # scale all three together to keep the box aspect
variable        repz index 8                            # ratio fixed (finite-size scaling, run_fss.sh)
replicate       ${repx} ${repy} ${repz}
set             group all spin 4.15 0.0 0.0 1.0       # FM start along +z
variable        dmi index 0.0
variable        alpha index 1.0
variable        nsteps index 200000
pair_style      hybrid/overlay spin/exchange 5.5 spin/dmi 5.5 spin/magelec 5.5
pair_coeff      * * spin/exchange exchange 5.5 0.00189446360437 0.0 5.273641 offset yes
pair_coeff      * * spin/dmi dmi 5.5 ${dmi} 0.0 1.0 0.0
pair_coeff      * * spin/magelec magelec 5.5 0.0 1.0 1.0 1.0   # zero strength: hybrid/overlay segfault workaround
neighbor        0.3 bin
neigh_modify    every 10 check yes delay 20
fix             1 all precession/spin zeeman 0.0 0.0 0.0 1.0
fix_modify      1 energy yes
fix             2 all langevin/spin ${runtemp} ${alpha} ${runseed}
fix             3 all nve/spin lattice frozen
timestep        0.0001
compute         out_mag all spin
thermo_style    custom step time pe c_out_mag[4] c_out_mag[5]
thermo          100
run             ${nsteps}
print           "DYNAMICS_T${runtemp}_DONE"
