# mp-1079285 (Tb6FeBi2) Fe-sublattice spin model, generated by build_mp1079285_model.py
# parameters from this project DFT (outputs/mp1079285_spin_model.json)
# J_b = 12.6166 meV (2 chain neighbours, 4.198 A), J_2b = 4.3072 meV (2 chain NNN, 8.396 A),
# J_inter = 2.7946 meV (6 neighbours, 8.403 A); atom type = chain index mod 4 + 1 separates 2b from interchain,
# |D| = 0.0975 meV on chain bonds; mu_Fe = 1.68 mu_B (classical unit vector). Every bond counted once.
# Verified with run 0 against the DFT pairs and spirals before use (see the JSON).
units           metal
atom_style      spin
dimension       3
boundary        p p p
atom_modify     map array

read_data       mp1079285_samecell_fe.data
replicate       8 8 8                                   # 1x4x1 data cell -> 8x32x8 = 2048 Fe spins (same size as the mp-754090 sweep)

set             group all spin 1.68 0.0 1.0 0.0     # FM ground state along b (chain axis)

pair_style      hybrid/overlay spin/exchange 5.0 spin/exchange 8.7 spin/dmi 5.0 spin/magelec 5.0
pair_coeff      * * spin/exchange 1 exchange 5.0 0.00857390260776 0.0 4.197986 offset yes
pair_coeff      * * spin/exchange 2 exchange 8.7 -0.000631646924008 4.0066418784 8.402939 offset yes
pair_coeff      1 3 spin/exchange 2 exchange 8.7 0.00292702888362 0.0 8.395972 offset yes   # +-2b chain NNN bonds
pair_coeff      2 4 spin/exchange 2 exchange 8.7 0.00292702888362 0.0 8.395972 offset yes
pair_coeff      * * spin/dmi dmi 5.0 9.75102414597e-05 0.64952182 -0.00002220 0.76034295
pair_coeff      * * spin/magelec magelec 5.0 0.0 1.0 1.0 1.0   # zero strength: hybrid/overlay segfault workaround

neighbor        0.3 bin
neigh_modify    every 10 check yes delay 20

fix             1 all precession/spin zeeman 0.0 0.0 0.0 1.0
fix_modify      1 energy yes
# alpha (Langevin damping) defaults to 1.0 for the equilibrium |m|(T) sweep: |m|(T) at equilibrium does not
# depend on alpha, but the thermalisation time of the softest magnons scales as 1/alpha and at 0.05 the
# 20 ps runs were still drifting at the temperatures nearest the transition (window-drift check in the
# analysis). Override with -var alpha 0.05 to reproduce the earlier runs.
variable        alpha index 1.0
fix             2 all langevin/spin ${runtemp} ${alpha} ${runseed}
fix             3 all nve/spin lattice frozen

timestep        0.0001

compute         out_mag all spin
thermo_style    custom step time pe c_out_mag[4] c_out_mag[5]
thermo          100

# nsteps defaults to 200000 (20 ps): the 4 ps sweep was still drifting downward at 125-250 K
# (|m| 0.47 -> 0.35 at 150 K across its averaged half), so 20 ps with the last 10 ps averaged.
variable        nsteps index 200000
run             ${nsteps}
print           "DYNAMICS_T${runtemp}_DONE"
