LAMMPS (10 Dec 2025 - Development - patch_10Dec2025-120-ga51f9ba0e7)
OMP_NUM_THREADS environment is not set. Defaulting to 1 thread.
  using 1 OpenMP thread(s) per MPI task
# mp-754090 (Li4Fe2TeWO12) validation system, EFFECTIVE nearest-neighbor parameterization,
# DFT-derived J with PLACEHOLDER DMI. First-pass qualitative check only -- see below.
#
# Only the magnetic Fe sublattice is modeled (framework Li/Te/W/O sites carry no spin and
# are dropped from the geometry entirely), same convention as in.pdfeir_effective.lammps.
#
# --- J derivation (real DFT, see outputs/dft_ordering_validation.csv, mp-754090) ---
#   E_FM  = -125.85042289 eV (0_fm, MAGMOM Fe = +5,+5)
#   E_AFM = -125.80218935 eV (1_afm, MAGMOM Fe = -5,+5)
#   dE = E_AFM - E_FM = 0.04823354 eV per formula-unit cell (2 Fe atoms: Fe0, Fe1)
#   Fe-Fe distances (computed from POSCAR + periodic images, see scratchpad): the AFM flip
#   here inverts Fe0 only, so ONLY Fe0-Fe1 (opposite-sublattice) bonds change sign; Fe0-Fe0
#   and Fe1-Fe1 (same-sublattice) bonds stay aligned in both FM and AFM. The nearest
#   opposite-sublattice shell has z=4 neighbors, tightly clustered at 5.112-5.157 Angstrom
#   (mean 5.132 A), well separated from the next shell (mixed same/opposite-sublattice,
#   starting 5.411 A) -- clean single-shell cutoff.
#   For H = -sum J'_ij (unit-vector si.sj), per-formula-unit energy bookkeeping gives
#     dE_total = z * J'_eff  =>  J'_eff = dE / z = 0.04823354 / 4 = 0.012058 eV = 12.06 meV
#   This treats the whole shell as one effective bond (mean-field-style single-J fit) --
#   the same level of approximation as the "effective nearest-neighbor" pdfeir model, not a
#   full multi-shell J(r) fit. FM being the DFT ground state (dE>0) is correctly reproduced
#   by a positive J' (favors alignment).
#
#   mu_s = 4.15 mu_B, averaged from OUTCAR magnetization (Fe tot moment 4.158-4.162 in FM,
#   4.134-4.140 in AFM).
#
# --- DMI: NOT DFT-derived. No noncollinear/SOC calculation has been run for this candidate
#   yet (all 24 completed DFT runs across the project are collinear FM/AFM only). D below is
#   a PLACEHOLDER (~25% of J, a common order-of-magnitude scale for moderate-DMI oxides, not
#   fit to anything) -- this run exists only to get a first qualitative spin texture on
#   screen while the real noncollinear+SOC VASP job (queued separately, see
#   data/dft_staging_noncollinear/mp-754090/) is pending. DO NOT read wavelength, chirality,
#   or critical-field numbers from this run as physical results until that job lands and D
#   is replaced with a DFT value.
#
# --- Anisotropy: unknown, set to 0 (no single-ion anisotropy term). Not guessed -- no DFT
#   or literature basis for a value or easy-axis direction for this compound.
#
# Known LAMMPS build issues (same machine/build as pdfeir, see in.pdfeir_dynamics.lammps):
#   hybrid/overlay segfaults with exactly 2 spin substyles; padded to 3 with a zero-strength
#   spin/magelec substyle as a workaround, not a physics change.

units           metal
atom_style      spin
dimension       3
boundary        p p p
atom_modify     map array

# Real triclinic cell (Angstrom, from mp-754090 POSCAR), 2-atom Fe-only basis.
#
# NOTE: an earlier version of this file used `lattice custom` (non-orthogonal a1/a2/a3) +
# `region prism ... 0 0 0 units lattice`, assuming zero tilt in lattice units would inherit
# the custom lattice's own skew. Smoke test proved this WRONG (no crash, no NaN -- silently
# wrong instead): LAMMPS built an orthogonal box (reported tilt "(0 0 0)" literally, i.e. no
# skew applied) with a fabricated "lattice spacing" that matched none of a1/a2/a3, giving 136
# atoms instead of the expected 24 for a 3x2x2 replication. Fixed by instead writing an
# explicit triclinic data file (mp754090_fe.data, lower-triangular convention, tilt
# hand-derived from a1/a2/a3 via a1hat/xy/ly/xz/yz -- volume-checked against
# det(a1,a2,a3)=206.827 before trusting it) and using read_data + replicate, which handles
# triclinic geometry correctly. Re-verified: this version gives exactly nx*ny*nz*2 atoms.
read_data       mp754090_fe.data
Reading data file ...
  triclinic box = (0 0 0) to (5.4127568 9.0551788 4.2197964) with tilt (5.9784859 5.9762174 6.1438952)
WARNING: Triclinic box skew is large. LAMMPS will run inefficiently. (src/domain.cpp:221)
  1 by 1 by 1 MPI processor grid
  reading atoms ...
  2 atoms
  read_data CPU = 0.001 seconds
variable        nx equal 16
variable        ny equal 8
variable        nz equal 8
replicate       ${nx} ${ny} ${nz}
replicate       16 ${ny} ${nz}
replicate       16 8 ${nz}
replicate       16 8 8
Replication is creating a 16x8x8 = 1024 times larger system...
  triclinic box = (0 0 0) to (86.604109 72.44143 33.758371) with tilt (47.827887 47.809739 49.151162)
WARNING: Triclinic box skew is large. LAMMPS will run inefficiently. (src/domain.cpp:221)
  1 by 1 by 1 MPI processor grid
  2048 atoms
  replicate CPU = 0.001 seconds

set             group all spin/atom/random 31 4.15   # mu_s = 4.15 mu_B, random init (paramagnetic start)
Setting atom values ...
  2048 settings made for spin/atom/random

# --- Exchange: J_eff = 12.058 meV = 0.012058 eV, Bethe-Slater fit, single-shell cutoff ---
variable        j_eff_eV equal 0.012058385
variable        d_shell equal 5.132075
variable        exch_a equal v_j_eff_eV*2.718281828/4.0
variable        rc_exch equal 5.25          # includes z=4 shell (5.112-5.157 A), excludes next (5.411 A)

# --- DMI: PLACEHOLDER, |D| = 3.0 meV, direction z -- see note above, not DFT-derived ---
variable        d_eV equal 0.003
variable        rc_dmi equal 5.25

pair_style      hybrid/overlay spin/exchange ${rc_exch} spin/dmi ${rc_dmi} spin/magelec ${rc_exch}
pair_style      hybrid/overlay spin/exchange 5.25 spin/dmi ${rc_dmi} spin/magelec ${rc_exch}
pair_style      hybrid/overlay spin/exchange 5.25 spin/dmi 5.25 spin/magelec ${rc_exch}
pair_style      hybrid/overlay spin/exchange 5.25 spin/dmi 5.25 spin/magelec 5.25
pair_coeff      * * spin/exchange exchange ${rc_exch} ${exch_a} 0.0 ${d_shell} offset yes
pair_coeff      * * spin/exchange exchange 5.25 ${exch_a} 0.0 ${d_shell} offset yes
pair_coeff      * * spin/exchange exchange 5.25 0.00819452220513194 0.0 ${d_shell} offset yes
pair_coeff      * * spin/exchange exchange 5.25 0.00819452220513194 0.0 5.132075 offset yes
pair_coeff      * * spin/dmi dmi ${rc_dmi} ${d_eV} 0.0 0.0 1.0
pair_coeff      * * spin/dmi dmi 5.25 ${d_eV} 0.0 0.0 1.0
pair_coeff      * * spin/dmi dmi 5.25 0.003 0.0 0.0 1.0
pair_coeff      * * spin/magelec magelec ${rc_exch} 0.0 1.0 1.0 1.0   # zero strength: segfault workaround only
pair_coeff      * * spin/magelec magelec 5.25 0.0 1.0 1.0 1.0   

neighbor        0.3 bin
neigh_modify    every 10 check yes delay 20

fix             1 all precession/spin zeeman 0.0 0.0 0.0 1.0
fix_modify      1 energy yes
fix             2 all langevin/spin 0.0 0.05 21      # damping placeholder, matches pdfeir convention
fix             3 all nve/spin lattice frozen         # rigid lattice, spin-only dynamics

timestep        0.0001

compute         outsp all property/atom spx spy spz sp
dump            1 all custom 500 dump_mp754090_T0.lammpstrj type x y z c_outsp[1] c_outsp[2] c_outsp[3]

thermo_style    custom step pe etotal
thermo          200

min_style       spin/lbfgs
minimize        1.0e-10 1.0e-12 5000 10000

CITE-CITE-CITE-CITE-CITE-CITE-CITE-CITE-CITE-CITE-CITE-CITE-CITE

Your simulation uses code contributions which should be cited:

- fix nve/spin command: https://doi.org/10.1016/j.jcp.2018.06.042

@article{tranchida2018massively,
title={Massively Parallel Symplectic Algorithm for Coupled Magnetic Spin    Dynamics and Molecular Dynamics},
author={Tranchida, J and Plimpton, S J and Thibaudeau, P and Thompson, A P},
journal={Journal of Computational Physics},
volume={372},
pages={406--425},
year={2018},
publisher={Elsevier}
doi={10.1016/j.jcp.2018.06.042}
}

- min_style spin/lbfgs command: https://doi.org/10.48550/arXiv.1904.02669

@article{ivanov2019fast,
title={Fast and Robust Algorithm for the Minimisation of the Energy of
    Spin Systems},
author={Ivanov, A. V and Uzdin, V. M. and J{'o}nsson, H.},
journal={arXiv preprint arXiv:1904.02669},
year={2019}
}

CITE-CITE-CITE-CITE-CITE-CITE-CITE-CITE-CITE-CITE-CITE-CITE-CITE

Switching to 'neigh_modify every 1 delay 0 check yes' setting during minimization
WARNING: Line search incompatible with gneb (src/SPIN/min_spin_lbfgs.cpp:107)
Generated 0 of 0 mixed pair_coeff terms from geometric mixing rule
Neighbor list info ...
  update: every = 1 steps, delay = 0 steps, check = yes
  max neighbors/atom: 2000, page size: 100000
  master list distance cutoff = 5.55
  ghost atom cutoff = 5.55
  binsize = 2.775, bins = 66 44 13
  3 neighbor lists, perpetual/occasional/extra = 3 0 0
  (1) pair spin/exchange, perpetual
      attributes: full, newton on
      pair build: full/bin/atomonly
      stencil: full/bin/3d
      bin: standard
  (2) pair spin/dmi, perpetual, copy from (1)
      attributes: full, newton on
      pair build: copy
      stencil: none
      bin: none
  (3) pair spin/magelec, perpetual, copy from (1)
      attributes: full, newton on
      pair build: copy
      stencil: none
      bin: none
WARNING: Dump 1 includes no atom IDs and is not sorted by ID. This may complicate post-processing tasks or visualization (src/dump.cpp:220)
Per MPI rank memory allocation (min/avg/max) = 5.919 | 5.919 | 5.919 Mbytes
   Step         PotEng         TotEng    
         0   74.603544      74.603544    
       200   0.16924115     0.16924115   
       396   0.16923922     0.16923922   
Loop time of 1.01422 on 1 procs for 396 steps with 2048 atoms

99.9% CPU use with 1 MPI tasks x 1 OpenMP threads

Minimization stats:
  Stopping criterion = energy tolerance
  Energy initial, next-to-last, final = 
      74.6035436361862  0.169239215723752  0.169239215655811
  Force two-norm initial, final = 0 0
  Force max component initial, final = 0 0
  Final line search alpha, max atom move = 0 0
  Iterations, force evaluations = 396 396

MPI task timing breakdown:
Section |  min time  |  avg time  |  max time  |%varavg| %total
---------------------------------------------------------------
Pair    | 0.86099    | 0.86099    | 0.86099    |   0.0 | 84.89
Neigh   | 0          | 0          | 0          |   0.0 |  0.00
Comm    | 0.022549   | 0.022549   | 0.022549   |   0.0 |  2.22
Output  | 3.4763e-05 | 3.4763e-05 | 3.4763e-05 |   0.0 |  0.00
Modify  | 0.011269   | 0.011269   | 0.011269   |   0.0 |  1.11
Other   |            | 0.1194     |            |       | 11.77

Nlocal:           2048 ave        2048 max        2048 min
Histogram: 1 0 0 0 0 0 0 0 0 0
Nghost:           1732 ave        1732 max        1732 min
Histogram: 1 0 0 0 0 0 0 0 0 0
Neighs:              0 ave           0 max           0 min
Histogram: 1 0 0 0 0 0 0 0 0 0
FullNghs:        24576 ave       24576 max       24576 min
Histogram: 1 0 0 0 0 0 0 0 0 0

Total # of neighbors = 24576
Ave neighs/atom = 12
Neighbor list builds = 0
Dangerous builds = 0

write_restart   restart.mp754090_T0.equil
System init for write_restart ...
Generated 0 of 0 mixed pair_coeff terms from geometric mixing rule
WARNING: Dump 1 includes no atom IDs and is not sorted by ID. This may complicate post-processing tasks or visualization (src/dump.cpp:220)
Total wall time: 0:00:01
