mp-1079285 (Tb6FeBi2) Fe-only spin sublattice, 1x4x1 cell in the LAMMPS frame, type = chain index mod 4 + 1 (build_mp1079285_model.py)

4 atoms
4 atom types

0.0000000000 8.4067719403 xlo xhi
0.0000000000 16.7919434923 ylo yhi
0.0000000000 7.2738332463 zlo zhi
0.0005602254 -4.1925454234 -0.0001665689 xy xz yz

Masses

1 55.845
2 55.845
3 55.845
4 55.845

Atoms # spin

1 1 0.1180683 2.0989723 0.0156997 0.0000000 0.0000000 1.0000000 1.68
2 2 0.1182083 6.2969581 0.0156997 0.0000000 0.0000000 1.0000000 1.68
3 3 0.1183484 10.4949440 0.0156997 0.0000000 0.0000000 1.0000000 1.68
4 4 0.1184884 14.6929299 0.0156997 0.0000000 0.0000000 1.0000000 1.68
