=== T = 10 K ===
LAMMPS (10 Dec 2025 - Development - patch_10Dec2025-120-ga51f9ba0e7)
OMP_NUM_THREADS environment is not set. Defaulting to 1 thread.
  using 1 OpenMP thread(s) per MPI task
Reading restart file ...
  restart file = 10 Dec 2025, LAMMPS = 10 Dec 2025
  restoring atom style spin from restart
  orthogonal box = (0 0 -1.3575) to (407.25 235.1259 1.3575)
  1 by 1 by 1 MPI processor grid
  restoring pair style hybrid/overlay from restart
  15000 atoms
  read_restart CPU = 0.006 seconds

CITE-CITE-CITE-CITE-CITE-CITE-CITE-CITE-CITE-CITE-CITE-CITE-CITE

Your simulation uses code contributions which should be cited:
- fix nve/spin command: https://doi.org/10.1016/j.jcp.2018.06.042
The log file lists these citations in BibTeX format.

CITE-CITE-CITE-CITE-CITE-CITE-CITE-CITE-CITE-CITE-CITE-CITE-CITE

Generated 0 of 0 mixed pair_coeff terms from geometric mixing rule
Neighbor list info ...
  update: every = 10 steps, delay = 20 steps, check = yes
  max neighbors/atom: 2000, page size: 100000
  master list distance cutoff = 3.558
  ghost atom cutoff = 3.558
  binsize = 1.779, bins = 229 133 2
  3 neighbor lists, perpetual/occasional/extra = 3 0 0
  (1) pair spin/exchange, perpetual
      attributes: full, newton on
      pair build: full/bin/atomonly
      stencil: full/bin/3d
      bin: standard
  (2) pair spin/dmi, perpetual, copy from (1)
      attributes: full, newton on
      pair build: copy
      stencil: none
      bin: none
  (3) pair spin/magelec, perpetual, copy from (1)
      attributes: full, newton on
      pair build: copy
      stencil: none
      bin: none
WARNING: Dump 1 includes no atom IDs and is not sorted by ID. This may complicate post-processing tasks or visualization (src/dump.cpp:220)
Setting up Verlet run ...
  Unit style    : metal
  Current step  : 2522
  Time step     : 0.0001
Per MPI rank memory allocation (min/avg/max) = 6.591 | 6.591 | 6.591 Mbytes
   Step          Time           Temp          PotEng         TotEng      c_out_mag[4]   c_out_mag[5] 
      2522   0.2522         0             -1.0275171     -1.0275171      0.030922721   -1.0275171    
      2600   0.26           0             -0.68303155    -0.68303155     0.030872387   -0.68303155   
      2800   0.28           0              0.15137076     0.15137076     0.031148143    0.15137076   
      3000   0.3            0              0.92808084     0.92808084     0.031454115    0.92808084   
      3200   0.32           0              1.6232014      1.6232014      0.031284084    1.6232014    
      3400   0.34           0              2.2572616      2.2572616      0.031528964    2.2572616    
      3600   0.36           0              2.8270822      2.8270822      0.031473698    2.8270822    
      3800   0.38           0              3.3338123      3.3338123      0.030619716    3.3338123    
      4000   0.4            0              3.8537629      3.8537629      0.030292587    3.8537629    
      4200   0.42           0              4.3797203      4.3797203      0.030559657    4.3797203    
      4400   0.44           0              4.803284       4.803284       0.029923424    4.803284     
      4600   0.46           0              5.1707883      5.1707883      0.029899546    5.1707883    
      4800   0.48           0              5.5659227      5.5659227      0.029879467    5.5659227    
      5000   0.5            0              5.9379058      5.9379058      0.029550707    5.9379058    
      5200   0.52           0              6.2419912      6.2419912      0.029658887    6.2419912    
      5400   0.54           0              6.5113513      6.5113513      0.029801539    6.5113513    
      5600   0.56           0              6.7879248      6.7879248      0.029479573    6.7879248    
      5800   0.58           0              7.042052       7.042052       0.029766477    7.042052     
      6000   0.6            0              7.2923902      7.2923902      0.029718569    7.2923902    
      6200   0.62           0              7.4969271      7.4969271      0.029193244    7.4969271    
      6400   0.64           0              7.7704615      7.7704615      0.029098844    7.7704615    
      6600   0.66           0              7.9603783      7.9603783      0.028719381    7.9603783    
      6800   0.68           0              8.1728141      8.1728141      0.02887171     8.1728141    
      7000   0.7            0              8.353355       8.353355       0.0289242      8.353355     
      7200   0.72           0              8.4599897      8.4599897      0.029060237    8.4599897    
      7400   0.74           0              8.6866301      8.6866301      0.02940417     8.6866301    
      7600   0.76           0              8.8629976      8.8629976      0.029307738    8.8629976    
      7800   0.78           0              8.9905774      8.9905774      0.029432098    8.9905774    
      8000   0.8            0              9.1254784      9.1254784      0.028817587    9.1254784    
      8200   0.82           0              9.2319047      9.2319047      0.028470936    9.2319047    
      8400   0.84           0              9.3087175      9.3087175      0.028689425    9.3087175    
      8600   0.86           0              9.4336845      9.4336845      0.028782869    9.4336845    
      8800   0.88           0              9.5266333      9.5266333      0.029248633    9.5266333    
      9000   0.9            0              9.5597657      9.5597657      0.029149579    9.5597657    
      9200   0.92           0              9.6922713      9.6922713      0.029673159    9.6922713    
      9400   0.94           0              9.7675035      9.7675035      0.030338116    9.7675035    
      9600   0.96           0              9.8710827      9.8710827      0.030216531    9.8710827    
      9800   0.98           0              9.9368064      9.9368064      0.029588414    9.9368064    
     10000   1              0              10.043646      10.043646      0.029789579    10.043646    
     10200   1.02           0              10.148684      10.148684      0.029656966    10.148684    
     10400   1.04           0              10.256396      10.256396      0.030553227    10.256396    
     10600   1.06           0              10.288942      10.288942      0.03050776     10.288942    
     10800   1.08           0              10.305944      10.305944      0.030893246    10.305944    
     11000   1.1            0              10.35287       10.35287       0.031131059    10.35287     
     11200   1.12           0              10.451234      10.451234      0.031400405    10.451234    
     11400   1.14           0              10.478438      10.478438      0.03102345     10.478438    
     11600   1.16           0              10.525512      10.525512      0.030624549    10.525512    
     11800   1.18           0              10.610265      10.610265      0.030283627    10.610265    
     12000   1.2            0              10.633352      10.633352      0.030403782    10.633352    
     12200   1.22           0              10.673256      10.673256      0.030077952    10.673256    
     12400   1.24           0              10.699152      10.699152      0.029465919    10.699152    
     12600   1.26           0              10.745105      10.745105      0.029216743    10.745105    
     12800   1.28           0              10.779365      10.779365      0.028826487    10.779365    
     13000   1.3            0              10.751364      10.751364      0.028486078    10.751364    
     13200   1.32           0              10.794978      10.794978      0.028952784    10.794978    
     13400   1.34           0              10.841129      10.841129      0.028507746    10.841129    
     13600   1.36           0              10.855696      10.855696      0.02879277     10.855696    
     13800   1.38           0              10.905932      10.905932      0.028993239    10.905932    
     14000   1.4            0              10.999957      10.999957      0.029034313    10.999957    
     14200   1.42           0              10.953794      10.953794      0.029041435    10.953794    
     14400   1.44           0              10.991481      10.991481      0.029112037    10.991481    
     14600   1.46           0              11.060658      11.060658      0.029465889    11.060658    
     14800   1.48           0              11.115319      11.115319      0.029368915    11.115319    
     15000   1.5            0              11.117753      11.117753      0.02937523     11.117753    
     15200   1.52           0              11.112155      11.112155      0.02911838     11.112155    
     15400   1.54           0              11.093143      11.093143      0.028957345    11.093143    
     15600   1.56           0              11.132342      11.132342      0.029046951    11.132342    
     15800   1.58           0              11.12877       11.12877       0.028620463    11.12877     
     16000   1.6            0              11.147754      11.147754      0.028552527    11.147754    
     16200   1.62           0              11.162249      11.162249      0.028597604    11.162249    
     16400   1.64           0              11.279768      11.279768      0.029256792    11.279768    
     16600   1.66           0              11.248068      11.248068      0.030262121    11.248068    
     16800   1.68           0              11.185235      11.185235      0.030168582    11.185235    
     17000   1.7            0              11.192399      11.192399      0.029829544    11.192399    
     17200   1.72           0              11.207448      11.207448      0.029955487    11.207448    
     17400   1.74           0              11.176786      11.176786      0.030350051    11.176786    
     17600   1.76           0              11.144329      11.144329      0.030339154    11.144329    
     17800   1.78           0              11.201343      11.201343      0.030581565    11.201343    
     18000   1.8            0              11.263777      11.263777      0.031011901    11.263777    
     18200   1.82           0              11.320153      11.320153      0.030716658    11.320153    
     18400   1.84           0              11.347142      11.347142      0.030741493    11.347142    
     18600   1.86           0              11.347557      11.347557      0.030599085    11.347557    
     18800   1.88           0              11.386271      11.386271      0.030730823    11.386271    
     19000   1.9            0              11.443743      11.443743      0.030845179    11.443743    
     19200   1.92           0              11.372963      11.372963      0.030772455    11.372963    
     19400   1.94           0              11.401335      11.401335      0.031178712    11.401335    
     19600   1.96           0              11.429325      11.429325      0.031332691    11.429325    
     19800   1.98           0              11.428512      11.428512      0.031335919    11.428512    
     20000   2              0              11.470395      11.470395      0.031205484    11.470395    
     20200   2.02           0              11.466488      11.466488      0.031438304    11.466488    
     20400   2.04           0              11.486077      11.486077      0.031473419    11.486077    
     20600   2.06           0              11.456178      11.456178      0.032092798    11.456178    
     20800   2.08           0              11.461645      11.461645      0.031639825    11.461645    
     21000   2.1            0              11.408489      11.408489      0.032020255    11.408489    
     21200   2.12           0              11.504154      11.504154      0.031478182    11.504154    
     21400   2.14           0              11.440316      11.440316      0.031607218    11.440316    
     21600   2.16           0              11.38832       11.38832       0.031506322    11.38832     
     21800   2.18           0              11.33798       11.33798       0.032104694    11.33798     
     22000   2.2            0              11.374099      11.374099      0.031868509    11.374099    
     22200   2.22           0              11.369369      11.369369      0.031568903    11.369369    
     22400   2.24           0              11.418606      11.418606      0.032040735    11.418606    
     22522   2.2522         0              11.431721      11.431721      0.031792541    11.431721    
Loop time of 487.694 on 1 procs for 20000 steps with 15000 atoms

Performance: 0.354 ns/day, 67.735 hours/ns, 41.009 timesteps/s, 615.140 katom-step/s
100.0% CPU use with 1 MPI tasks x 1 OpenMP threads

MPI task timing breakdown:
Section |  min time  |  avg time  |  max time  |%varavg| %total
---------------------------------------------------------------
Pair    | 124.41     | 124.41     | 124.41     |   0.0 | 25.51
Neigh   | 0          | 0          | 0          |   0.0 |  0.00
Comm    | 0.36157    | 0.36157    | 0.36157    |   0.0 |  0.07
Output  | 0.80233    | 0.80233    | 0.80233    |   0.0 |  0.16
Modify  | 361.32     | 361.32     | 361.32     |   0.0 | 74.09
Other   |            | 0.7979     |            |       |  0.16

Nlocal:          15000 ave       15000 max       15000 min
Histogram: 1 0 0 0 0 0 0 0 0 0
Nghost:            707 ave         707 max         707 min
Histogram: 1 0 0 0 0 0 0 0 0 0
Neighs:              0 ave           0 max           0 min
Histogram: 1 0 0 0 0 0 0 0 0 0
FullNghs:        90000 ave       90000 max       90000 min
Histogram: 1 0 0 0 0 0 0 0 0 0

Total # of neighbors = 90000
Ave neighs/atom = 6
Neighbor list builds = 0
Dangerous builds = 0
DYNAMICS_T10_DONE
Total wall time: 0:08:07
=== T = 50 K ===
LAMMPS (10 Dec 2025 - Development - patch_10Dec2025-120-ga51f9ba0e7)
OMP_NUM_THREADS environment is not set. Defaulting to 1 thread.
  using 1 OpenMP thread(s) per MPI task
Reading restart file ...
  restart file = 10 Dec 2025, LAMMPS = 10 Dec 2025
  restoring atom style spin from restart
  orthogonal box = (0 0 -1.3575) to (407.25 235.1259 1.3575)
  1 by 1 by 1 MPI processor grid
  restoring pair style hybrid/overlay from restart
  15000 atoms
  read_restart CPU = 0.003 seconds

CITE-CITE-CITE-CITE-CITE-CITE-CITE-CITE-CITE-CITE-CITE-CITE-CITE

Your simulation uses code contributions which should be cited:
- fix nve/spin command: https://doi.org/10.1016/j.jcp.2018.06.042
The log file lists these citations in BibTeX format.

CITE-CITE-CITE-CITE-CITE-CITE-CITE-CITE-CITE-CITE-CITE-CITE-CITE

Generated 0 of 0 mixed pair_coeff terms from geometric mixing rule
Neighbor list info ...
  update: every = 10 steps, delay = 20 steps, check = yes
  max neighbors/atom: 2000, page size: 100000
  master list distance cutoff = 3.558
  ghost atom cutoff = 3.558
  binsize = 1.779, bins = 229 133 2
  3 neighbor lists, perpetual/occasional/extra = 3 0 0
  (1) pair spin/exchange, perpetual
      attributes: full, newton on
      pair build: full/bin/atomonly
      stencil: full/bin/3d
      bin: standard
  (2) pair spin/dmi, perpetual, copy from (1)
      attributes: full, newton on
      pair build: copy
      stencil: none
      bin: none
  (3) pair spin/magelec, perpetual, copy from (1)
      attributes: full, newton on
      pair build: copy
      stencil: none
      bin: none
WARNING: Dump 1 includes no atom IDs and is not sorted by ID. This may complicate post-processing tasks or visualization (src/dump.cpp:220)
Setting up Verlet run ...
  Unit style    : metal
  Current step  : 2522
  Time step     : 0.0001
Per MPI rank memory allocation (min/avg/max) = 6.591 | 6.591 | 6.591 Mbytes
   Step          Time           Temp          PotEng         TotEng      c_out_mag[4]   c_out_mag[5] 
      2522   0.2522         0             -1.0275171     -1.0275171      0.030922721   -1.0275171    
      2600   0.26           0              0.68765046     0.68765046     0.030743776    0.68765046   
      2800   0.28           0              4.7869623      4.7869623      0.031323549    4.7869623    
      3000   0.3            0              8.5504271      8.5504271      0.031778827    8.5504271    
      3200   0.32           0              11.860915      11.860915      0.031174693    11.860915    
      3400   0.34           0              14.838372      14.838372      0.03165043     14.838372    
      3600   0.36           0              17.518389      17.518389      0.031532488    17.518389    
      3800   0.38           0              19.918641      19.918641      0.029422662    19.918641    
      4000   0.4            0              22.342777      22.342777      0.02861135     22.342777    
      4200   0.42           0              24.766895      24.766895      0.029158143    24.766895    
      4400   0.44           0              26.750402      26.750402      0.027729228    26.750402    
      4600   0.46           0              28.456381      28.456381      0.027419071    28.456381    
      4800   0.48           0              30.258317      30.258317      0.027495384    30.258317    
      5000   0.5            0              31.996476      31.996476      0.026449456    31.996476    
      5200   0.52           0              33.459878      33.459878      0.02664371     33.459878    
      5400   0.54           0              34.664188      34.664188      0.026342579    34.664188    
      5600   0.56           0              35.897619      35.897619      0.025591808    35.897619    
      5800   0.58           0              37.126909      37.126909      0.026096013    37.126909    
      6000   0.6            0              38.154378      38.154378      0.026455493    38.154378    
      6200   0.62           0              39.164974      39.164974      0.025313352    39.164974    
      6400   0.64           0              40.612211      40.612211      0.02509652     40.612211    
      6600   0.66           0              41.584171      41.584171      0.024232285    41.584171    
      6800   0.68           0              42.661423      42.661423      0.024145155    42.661423    
      7000   0.7            0              43.51852       43.51852       0.024061671    43.51852     
      7200   0.72           0              44.029755      44.029755      0.02390068     44.029755    
      7400   0.74           0              45.169946      45.169946      0.025095272    45.169946    
      7600   0.76           0              45.860531      45.860531      0.024818482    45.860531    
      7800   0.78           0              46.815539      46.815539      0.025425452    46.815539    
      8000   0.8            0              47.739696      47.739696      0.024148701    47.739696    
      8200   0.82           0              48.483925      48.483925      0.023510385    48.483925    
      8400   0.84           0              48.942095      48.942095      0.02328379     48.942095    
      8600   0.86           0              49.487077      49.487077      0.024072166    49.487077    
      8800   0.88           0              49.921084      49.921084      0.025362929    49.921084    
      9000   0.9            0              50.413629      50.413629      0.024691817    50.413629    
      9200   0.92           0              50.968334      50.968334      0.024910524    50.968334    
      9400   0.94           0              51.645517      51.645517      0.025420268    51.645517    
      9600   0.96           0              52.155029      52.155029      0.025319113    52.155029    
      9800   0.98           0              52.706348      52.706348      0.023511999    52.706348    
     10000   1              0              53.083847      53.083847      0.024676558    53.083847    
     10200   1.02           0              53.679766      53.679766      0.024528619    53.679766    
     10400   1.04           0              54.068825      54.068825      0.026110759    54.068825    
     10600   1.06           0              54.353851      54.353851      0.026539598    54.353851    
     10800   1.08           0              54.861906      54.861906      0.026862109    54.861906    
     11000   1.1            0              55.523513      55.523513      0.027953952    55.523513    
     11200   1.12           0              55.80612       55.80612       0.027795674    55.80612     
     11400   1.14           0              56.037173      56.037173      0.027126321    56.037173    
     11600   1.16           0              56.292585      56.292585      0.025657208    56.292585    
     11800   1.18           0              56.792641      56.792641      0.025399257    56.792641    
     12000   1.2            0              57.344078      57.344078      0.025017412    57.344078    
     12200   1.22           0              57.594194      57.594194      0.024682322    57.594194    
     12400   1.24           0              57.899312      57.899312      0.023643529    57.899312    
     12600   1.26           0              58.0095        58.0095        0.023269651    58.0095      
     12800   1.28           0              58.147373      58.147373      0.021319007    58.147373    
     13000   1.3            0              58.418833      58.418833      0.020942224    58.418833    
     13200   1.32           0              58.598073      58.598073      0.021325392    58.598073    
     13400   1.34           0              58.72531       58.72531       0.020130568    58.72531     
     13600   1.36           0              59.140326      59.140326      0.020725924    59.140326    
     13800   1.38           0              59.166944      59.166944      0.021819085    59.166944    
     14000   1.4            0              59.536081      59.536081      0.020219733    59.536081    
     14200   1.42           0              59.780547      59.780547      0.019555666    59.780547    
     14400   1.44           0              59.753462      59.753462      0.020523249    59.753462    
     14600   1.46           0              60.364327      60.364327      0.021131266    60.364327    
     14800   1.48           0              60.453862      60.453862      0.021220903    60.453862    
     15000   1.5            0              60.717785      60.717785      0.022240863    60.717785    
     15200   1.52           0              60.645481      60.645481      0.022075254    60.645481    
     15400   1.54           0              60.55701       60.55701       0.021912786    60.55701     
     15600   1.56           0              60.810023      60.810023      0.021959539    60.810023    
     15800   1.58           0              61.012108      61.012108      0.021083777    61.012108    
     16000   1.6            0              61.137349      61.137349      0.021020704    61.137349    
     16200   1.62           0              61.393116      61.393116      0.021514186    61.393116    
     16400   1.64           0              61.898751      61.898751      0.023431786    61.898751    
     16600   1.66           0              62.045879      62.045879      0.025085551    62.045879    
     16800   1.68           0              62.05065       62.05065       0.024936256    62.05065     
     17000   1.7            0              62.303695      62.303695      0.024352218    62.303695    
     17200   1.72           0              62.678144      62.678144      0.024923252    62.678144    
     17400   1.74           0              62.851917      62.851917      0.026216635    62.851917    
     17600   1.76           0              62.726669      62.726669      0.026351398    62.726669    
     17800   1.78           0              62.901122      62.901122      0.027098646    62.901122    
     18000   1.8            0              63.215171      63.215171      0.028131015    63.215171    
     18200   1.82           0              63.151033      63.151033      0.027450569    63.151033    
     18400   1.84           0              63.22747       63.22747       0.027586306    63.22747     
     18600   1.86           0              63.299203      63.299203      0.027204199    63.299203    
     18800   1.88           0              63.533841      63.533841      0.027882394    63.533841    
     19000   1.9            0              63.688566      63.688566      0.028269177    63.688566    
     19200   1.92           0              63.92722       63.92722       0.028113464    63.92722     
     19400   1.94           0              63.903924      63.903924      0.03005434     63.903924    
     19600   1.96           0              64.209428      64.209428      0.030957701    64.209428    
     19800   1.98           0              64.723857      64.723857      0.030733412    64.723857    
     20000   2              0              64.877186      64.877186      0.030423888    64.877186    
     20200   2.02           0              65.003516      65.003516      0.032048614    65.003516    
     20400   2.04           0              65.057726      65.057726      0.032099818    65.057726    
     20600   2.06           0              65.180432      65.180432      0.033344966    65.180432    
     20800   2.08           0              65.292781      65.292781      0.033066256    65.292781    
     21000   2.1            0              65.33278       65.33278       0.03389943     65.33278     
     21200   2.12           0              65.653778      65.653778      0.033301553    65.653778    
     21400   2.14           0              65.878517      65.878517      0.033592832    65.878517    
     21600   2.16           0              65.960304      65.960304      0.033446481    65.960304    
     21800   2.18           0              66.133583      66.133583      0.033580189    66.133583    
     22000   2.2            0              66.36521       66.36521       0.032661473    66.36521     
     22200   2.22           0              66.566554      66.566554      0.031646073    66.566554    
     22400   2.24           0              66.475942      66.475942      0.032365908    66.475942    
     22522   2.2522         0              66.518793      66.518793      0.031837454    66.518793    
Loop time of 494.915 on 1 procs for 20000 steps with 15000 atoms

Performance: 0.349 ns/day, 68.738 hours/ns, 40.411 timesteps/s, 606.164 katom-step/s
99.9% CPU use with 1 MPI tasks x 1 OpenMP threads

MPI task timing breakdown:
Section |  min time  |  avg time  |  max time  |%varavg| %total
---------------------------------------------------------------
Pair    | 125.3      | 125.3      | 125.3      |   0.0 | 25.32
Neigh   | 0          | 0          | 0          |   0.0 |  0.00
Comm    | 0.36096    | 0.36096    | 0.36096    |   0.0 |  0.07
Output  | 0.79867    | 0.79867    | 0.79867    |   0.0 |  0.16
Modify  | 367.66     | 367.66     | 367.66     |   0.0 | 74.29
Other   |            | 0.7928     |            |       |  0.16

Nlocal:          15000 ave       15000 max       15000 min
Histogram: 1 0 0 0 0 0 0 0 0 0
Nghost:            707 ave         707 max         707 min
Histogram: 1 0 0 0 0 0 0 0 0 0
Neighs:              0 ave           0 max           0 min
Histogram: 1 0 0 0 0 0 0 0 0 0
FullNghs:        90000 ave       90000 max       90000 min
Histogram: 1 0 0 0 0 0 0 0 0 0

Total # of neighbors = 90000
Ave neighs/atom = 6
Neighbor list builds = 0
Dangerous builds = 0
DYNAMICS_T50_DONE
Total wall time: 0:08:14
=== T = 100 K ===
LAMMPS (10 Dec 2025 - Development - patch_10Dec2025-120-ga51f9ba0e7)
OMP_NUM_THREADS environment is not set. Defaulting to 1 thread.
  using 1 OpenMP thread(s) per MPI task
Reading restart file ...
  restart file = 10 Dec 2025, LAMMPS = 10 Dec 2025
  restoring atom style spin from restart
  orthogonal box = (0 0 -1.3575) to (407.25 235.1259 1.3575)
  1 by 1 by 1 MPI processor grid
  restoring pair style hybrid/overlay from restart
  15000 atoms
  read_restart CPU = 0.004 seconds

CITE-CITE-CITE-CITE-CITE-CITE-CITE-CITE-CITE-CITE-CITE-CITE-CITE

Your simulation uses code contributions which should be cited:
- fix nve/spin command: https://doi.org/10.1016/j.jcp.2018.06.042
The log file lists these citations in BibTeX format.

CITE-CITE-CITE-CITE-CITE-CITE-CITE-CITE-CITE-CITE-CITE-CITE-CITE

Generated 0 of 0 mixed pair_coeff terms from geometric mixing rule
Neighbor list info ...
  update: every = 10 steps, delay = 20 steps, check = yes
  max neighbors/atom: 2000, page size: 100000
  master list distance cutoff = 3.558
  ghost atom cutoff = 3.558
  binsize = 1.779, bins = 229 133 2
  3 neighbor lists, perpetual/occasional/extra = 3 0 0
  (1) pair spin/exchange, perpetual
      attributes: full, newton on
      pair build: full/bin/atomonly
      stencil: full/bin/3d
      bin: standard
  (2) pair spin/dmi, perpetual, copy from (1)
      attributes: full, newton on
      pair build: copy
      stencil: none
      bin: none
  (3) pair spin/magelec, perpetual, copy from (1)
      attributes: full, newton on
      pair build: copy
      stencil: none
      bin: none
WARNING: Dump 1 includes no atom IDs and is not sorted by ID. This may complicate post-processing tasks or visualization (src/dump.cpp:220)
Setting up Verlet run ...
  Unit style    : metal
  Current step  : 2522
  Time step     : 0.0001
Per MPI rank memory allocation (min/avg/max) = 6.591 | 6.591 | 6.591 Mbytes
   Step          Time           Temp          PotEng         TotEng      c_out_mag[4]   c_out_mag[5] 
      2522   0.2522         0             -1.0275171     -1.0275171      0.030922721   -1.0275171    
      2600   0.26           0              2.3851351      2.3851351      0.030598226    2.3851351    
      2800   0.28           0              10.409284      10.409284      0.031367057    10.409284    
      3000   0.3            0              17.637463      17.637463      0.031731798    17.637463    
      3200   0.32           0              23.864111      23.864111      0.030665707    23.864111    
      3400   0.34           0              29.37231       29.37231       0.031287511    29.37231     
      3600   0.36           0              34.321087      34.321087      0.031132573    34.321087    
      3800   0.38           0              38.761918      38.761918      0.028061563    38.761918    
      4000   0.4            0              43.18236       43.18236       0.026944919    43.18236     
      4200   0.42           0              47.464088      47.464088      0.027637772    47.464088    
      4400   0.44           0              51.045208      51.045208      0.025569843    51.045208    
      4600   0.46           0              54.125255      54.125255      0.024795605    54.125255    
      4800   0.48           0              57.304716      57.304716      0.025038849    57.304716    
      5000   0.5            0              60.307644      60.307644      0.023181013    60.307644    
      5200   0.52           0              62.980829      62.980829      0.023072555    62.980829    
      5400   0.54           0              65.132186      65.132186      0.022105418    65.132186    
      5600   0.56           0              67.332371      67.332371      0.021100864    67.332371    
      5800   0.58           0              69.46779       69.46779       0.021597852    69.46779     
      6000   0.6            0              71.042421      71.042421      0.022076413    71.042421    
      6200   0.62           0              73.091893      73.091893      0.021109114    73.091893    
      6400   0.64           0              75.596074      75.596074      0.021205598    75.596074    
      6600   0.66           0              77.563963      77.563963      0.02049038     77.563963    
      6800   0.68           0              79.602578      79.602578      0.019844556    79.602578    
      7000   0.7            0              81.53771       81.53771       0.019294535    81.53771     
      7200   0.72           0              82.606568      82.606568      0.018616108    82.606568    
      7400   0.74           0              84.146475      84.146475      0.020094438    84.146475    
      7600   0.76           0              85.58632       85.58632       0.020531179    85.58632     
      7800   0.78           0              86.835619      86.835619      0.020901528    86.835619    
      8000   0.8            0              88.438663      88.438663      0.019565964    88.438663    
      8200   0.82           0              89.608679      89.608679      0.018210649    89.608679    
      8400   0.84           0              90.38536       90.38536       0.018358342    90.38536     
      8600   0.86           0              91.311306      91.311306      0.020017766    91.311306    
      8800   0.88           0              92.27035       92.27035       0.020438976    92.27035     
      9000   0.9            0              93.327898      93.327898      0.018777928    93.327898    
      9200   0.92           0              94.458521      94.458521      0.018588572    94.458521    
      9400   0.94           0              95.488542      95.488542      0.018785219    95.488542    
      9600   0.96           0              96.594682      96.594682      0.017723352    96.594682    
      9800   0.98           0              97.647036      97.647036      0.015345312    97.647036    
     10000   1              0              98.641664      98.641664      0.016350202    98.641664    
     10200   1.02           0              99.726541      99.726541      0.016750643    99.726541    
     10400   1.04           0              100.78732      100.78732      0.018184517    100.78732    
     10600   1.06           0              102.02547      102.02547      0.017091721    102.02547    
     10800   1.08           0              102.27275      102.27275      0.015282709    102.27275    
     11000   1.1            0              103.25815      103.25815      0.014723967    103.25815    
     11200   1.12           0              104.0796       104.0796       0.01482595     104.0796     
     11400   1.14           0              104.81878      104.81878      0.013891068    104.81878    
     11600   1.16           0              105.84823      105.84823      0.014564205    105.84823    
     11800   1.18           0              106.64817      106.64817      0.012754927    106.64817    
     12000   1.2            0              107.22236      107.22236      0.014077333    107.22236    
     12200   1.22           0              108.19114      108.19114      0.012962593    108.19114    
     12400   1.24           0              108.60262      108.60262      0.010944877    108.60262    
     12600   1.26           0              109.23744      109.23744      0.010502457    109.23744    
     12800   1.28           0              109.45824      109.45824      0.0089354087   109.45824    
     13000   1.3            0              109.55525      109.55525      0.0088541698   109.55525    
     13200   1.32           0              110.09963      110.09963      0.0092345717   110.09963    
     13400   1.34           0              110.58084      110.58084      0.0058614746   110.58084    
     13600   1.36           0              111.01954      111.01954      0.0063084701   111.01954    
     13800   1.38           0              111.66473      111.66473      0.0068064157   111.66473    
     14000   1.4            0              112.03981      112.03981      0.0071777243   112.03981    
     14200   1.42           0              112.78053      112.78053      0.0058509463   112.78053    
     14400   1.44           0              113.07639      113.07639      0.0047536662   113.07639    
     14600   1.46           0              113.10435      113.10435      0.0060865432   113.10435    
     14800   1.48           0              113.31405      113.31405      0.0051601951   113.31405    
     15000   1.5            0              113.45194      113.45194      0.0056111517   113.45194    
     15200   1.52           0              113.75564      113.75564      0.0064162459   113.75564    
     15400   1.54           0              113.92567      113.92567      0.0088740011   113.92567    
     15600   1.56           0              114.54638      114.54638      0.010558001    114.54638    
     15800   1.58           0              115.21452      115.21452      0.011610992    115.21452    
     16000   1.6            0              115.76339      115.76339      0.010806533    115.76339    
     16200   1.62           0              116.31746      116.31746      0.010725785    116.31746    
     16400   1.64           0              116.99991      116.99991      0.012382276    116.99991    
     16600   1.66           0              117.70365      117.70365      0.013915256    117.70365    
     16800   1.68           0              117.97721      117.97721      0.012883354    117.97721    
     17000   1.7            0              118.31311      118.31311      0.012299493    118.31311    
     17200   1.72           0              118.46906      118.46906      0.012577569    118.46906    
     17400   1.74           0              118.68888      118.68888      0.01160938     118.68888    
     17600   1.76           0              119.16904      119.16904      0.012427568    119.16904    
     17800   1.78           0              119.42361      119.42361      0.011546307    119.42361    
     18000   1.8            0              119.88272      119.88272      0.012875774    119.88272    
     18200   1.82           0              119.95098      119.95098      0.013264652    119.95098    
     18400   1.84           0              120.28368      120.28368      0.014562193    120.28368    
     18600   1.86           0              120.26401      120.26401      0.015011713    120.26401    
     18800   1.88           0              120.73423      120.73423      0.015497644    120.73423    
     19000   1.9            0              120.85516      120.85516      0.014926887    120.85516    
     19200   1.92           0              121.27404      121.27404      0.015739554    121.27404    
     19400   1.94           0              121.82759      121.82759      0.016737788    121.82759    
     19600   1.96           0              122.10045      122.10045      0.016929575    122.10045    
     19800   1.98           0              122.33494      122.33494      0.016175432    122.33494    
     20000   2              0              122.64877      122.64877      0.01473488     122.64877    
     20200   2.02           0              122.82752      122.82752      0.016110797    122.82752    
     20400   2.04           0              123.11593      123.11593      0.016085251    123.11593    
     20600   2.06           0              123.25537      123.25537      0.016586648    123.25537    
     20800   2.08           0              123.45418      123.45418      0.015377322    123.45418    
     21000   2.1            0              123.25042      123.25042      0.015714059    123.25042    
     21200   2.12           0              123.73769      123.73769      0.014729099    123.73769    
     21400   2.14           0              123.67244      123.67244      0.014540781    123.67244    
     21600   2.16           0              123.84786      123.84786      0.01240962     123.84786    
     21800   2.18           0              124.0049       124.0049       0.01241877     124.0049     
     22000   2.2            0              124.03146      124.03146      0.013652891    124.03146    
     22200   2.22           0              124.00286      124.00286      0.010179387    124.00286    
     22400   2.24           0              124.30125      124.30125      0.0098478263   124.30125    
     22522   2.2522         0              124.41952      124.41952      0.0096097757   124.41952    
Loop time of 498.685 on 1 procs for 20000 steps with 15000 atoms

Performance: 0.347 ns/day, 69.262 hours/ns, 40.105 timesteps/s, 601.582 katom-step/s
100.0% CPU use with 1 MPI tasks x 1 OpenMP threads

MPI task timing breakdown:
Section |  min time  |  avg time  |  max time  |%varavg| %total
---------------------------------------------------------------
Pair    | 125.13     | 125.13     | 125.13     |   0.0 | 25.09
Neigh   | 0          | 0          | 0          |   0.0 |  0.00
Comm    | 0.3761     | 0.3761     | 0.3761     |   0.0 |  0.08
Output  | 0.78358    | 0.78358    | 0.78358    |   0.0 |  0.16
Modify  | 371.53     | 371.53     | 371.53     |   0.0 | 74.50
Other   |            | 0.8641     |            |       |  0.17

Nlocal:          15000 ave       15000 max       15000 min
Histogram: 1 0 0 0 0 0 0 0 0 0
Nghost:            707 ave         707 max         707 min
Histogram: 1 0 0 0 0 0 0 0 0 0
Neighs:              0 ave           0 max           0 min
Histogram: 1 0 0 0 0 0 0 0 0 0
FullNghs:        90000 ave       90000 max       90000 min
Histogram: 1 0 0 0 0 0 0 0 0 0

Total # of neighbors = 90000
Ave neighs/atom = 6
Neighbor list builds = 0
Dangerous builds = 0
DYNAMICS_T100_DONE
Total wall time: 0:08:18
=== T = 150 K ===
LAMMPS (10 Dec 2025 - Development - patch_10Dec2025-120-ga51f9ba0e7)
OMP_NUM_THREADS environment is not set. Defaulting to 1 thread.
  using 1 OpenMP thread(s) per MPI task
Reading restart file ...
  restart file = 10 Dec 2025, LAMMPS = 10 Dec 2025
  restoring atom style spin from restart
  orthogonal box = (0 0 -1.3575) to (407.25 235.1259 1.3575)
  1 by 1 by 1 MPI processor grid
  restoring pair style hybrid/overlay from restart
  15000 atoms
  read_restart CPU = 0.005 seconds

CITE-CITE-CITE-CITE-CITE-CITE-CITE-CITE-CITE-CITE-CITE-CITE-CITE

Your simulation uses code contributions which should be cited:
- fix nve/spin command: https://doi.org/10.1016/j.jcp.2018.06.042
The log file lists these citations in BibTeX format.

CITE-CITE-CITE-CITE-CITE-CITE-CITE-CITE-CITE-CITE-CITE-CITE-CITE

Generated 0 of 0 mixed pair_coeff terms from geometric mixing rule
Neighbor list info ...
  update: every = 10 steps, delay = 20 steps, check = yes
  max neighbors/atom: 2000, page size: 100000
  master list distance cutoff = 3.558
  ghost atom cutoff = 3.558
  binsize = 1.779, bins = 229 133 2
  3 neighbor lists, perpetual/occasional/extra = 3 0 0
  (1) pair spin/exchange, perpetual
      attributes: full, newton on
      pair build: full/bin/atomonly
      stencil: full/bin/3d
      bin: standard
  (2) pair spin/dmi, perpetual, copy from (1)
      attributes: full, newton on
      pair build: copy
      stencil: none
      bin: none
  (3) pair spin/magelec, perpetual, copy from (1)
      attributes: full, newton on
      pair build: copy
      stencil: none
      bin: none
WARNING: Dump 1 includes no atom IDs and is not sorted by ID. This may complicate post-processing tasks or visualization (src/dump.cpp:220)
Setting up Verlet run ...
  Unit style    : metal
  Current step  : 2522
  Time step     : 0.0001
Per MPI rank memory allocation (min/avg/max) = 6.591 | 6.591 | 6.591 Mbytes
   Step          Time           Temp          PotEng         TotEng      c_out_mag[4]   c_out_mag[5] 
      2522   0.2522         0             -1.0275171     -1.0275171      0.030922721   -1.0275171    
      2600   0.26           0              4.065301       4.065301       0.030457558    4.065301     
      2800   0.28           0              15.8473        15.8473        0.031343008    15.8473      
      3000   0.3            0              26.2518        26.2518        0.031507798    26.2518      
      3200   0.32           0              35.026516      35.026516      0.030025693    35.026516    
      3400   0.34           0              42.660943      42.660943      0.030762638    42.660943    
      3600   0.36           0              49.485963      49.485963      0.030593685    49.485963    
      3800   0.38           0              55.596107      55.596107      0.026844718    55.596107    
      4000   0.4            0              61.586551      61.586551      0.025590313    61.586551    
      4200   0.42           0              67.162562      67.162562      0.026315938    67.162562    
      4400   0.44           0              71.90628       71.90628       0.023793989    71.90628     
      4600   0.46           0              76.013823      76.013823      0.022507435    76.013823    
      4800   0.48           0              80.187126      80.187126      0.022865138    80.187126    
      5000   0.5            0              83.932121      83.932121      0.02015673     83.932121    
      5200   0.52           0              87.355655      87.355655      0.019644375    87.355655    
      5400   0.54           0              90.094415      90.094415      0.018674822    90.094415    
      5600   0.56           0              93.102076      93.102076      0.01760016     93.102076    
      5800   0.58           0              95.521293      95.521293      0.018992405    95.521293    
      6000   0.6            0              97.822519      97.822519      0.018931854    97.822519    
      6200   0.62           0              100.50396      100.50396      0.017310799    100.50396    
      6400   0.64           0              103.19893      103.19893      0.017242334    103.19893    
      6600   0.66           0              105.59482      105.59482      0.016748249    105.59482    
      6800   0.68           0              108.05229      108.05229      0.016588762    108.05229    
      7000   0.7            0              110.18452      110.18452      0.015935852    110.18452    
      7200   0.72           0              112.02693      112.02693      0.01511868     112.02693    
      7400   0.74           0              113.61457      113.61457      0.015456121    113.61457    
      7600   0.76           0              115.00177      115.00177      0.015969528    115.00177    
      7800   0.78           0              116.64451      116.64451      0.016923744    116.64451    
      8000   0.8            0              118.40366      118.40366      0.014261213    118.40366    
      8200   0.82           0              119.5023       119.5023       0.011993183    119.5023     
      8400   0.84           0              120.48744      120.48744      0.012707253    120.48744    
      8600   0.86           0              121.56937      121.56937      0.015231963    121.56937    
      8800   0.88           0              122.54707      122.54707      0.016082442    122.54707    
      9000   0.9            0              123.43806      123.43806      0.015170426    123.43806    
      9200   0.92           0              124.32719      124.32719      0.017204961    124.32719    
      9400   0.94           0              125.40233      125.40233      0.017052027    125.40233    
      9600   0.96           0              126.44799      126.44799      0.016441825    126.44799    
      9800   0.98           0              127.70798      127.70798      0.014890564    127.70798    
     10000   1              0              128.68283      128.68283      0.016324853    128.68283    
     10200   1.02           0              129.58452      129.58452      0.014063385    129.58452    
     10400   1.04           0              130.4833       130.4833       0.014570419    130.4833     
     10600   1.06           0              131.12926      131.12926      0.014047201    131.12926    
     10800   1.08           0              131.85913      131.85913      0.012789452    131.85913    
     11000   1.1            0              132.80543      132.80543      0.011607713    132.80543    
     11200   1.12           0              133.56518      133.56518      0.012786182    133.56518    
     11400   1.14           0              133.8391       133.8391       0.010052519    133.8391     
     11600   1.16           0              134.71934      134.71934      0.0091028904   134.71934    
     11800   1.18           0              135.4479       135.4479       0.0083187144   135.4479     
     12000   1.2            0              136.19053      136.19053      0.011023579    136.19053    
     12200   1.22           0              136.92822      136.92822      0.011853344    136.92822    
     12400   1.24           0              137.52694      137.52694      0.012051041    137.52694    
     12600   1.26           0              137.90854      137.90854      0.011638553    137.90854    
     12800   1.28           0              138.15837      138.15837      0.01228188     138.15837    
     13000   1.3            0              138.29353      138.29353      0.012328022    138.29353    
     13200   1.32           0              138.74729      138.74729      0.012742127    138.74729    
     13400   1.34           0              138.74033      138.74033      0.0095410232   138.74033    
     13600   1.36           0              139.45248      139.45248      0.0090929073   139.45248    
     13800   1.38           0              139.70348      139.70348      0.011267955    139.70348    
     14000   1.4            0              140.52996      140.52996      0.0106069      140.52996    
     14200   1.42           0              140.82726      140.82726      0.0095721679   140.82726    
     14400   1.44           0              141.06911      141.06911      0.0077335359   141.06911    
     14600   1.46           0              141.25792      141.25792      0.0068416574   141.25792    
     14800   1.48           0              141.65342      141.65342      0.0050170039   141.65342    
     15000   1.5            0              142.0199       142.0199       0.0063850017   142.0199     
     15200   1.52           0              142.20461      142.20461      0.0058246805   142.20461    
     15400   1.54           0              142.04041      142.04041      0.0074891194   142.04041    
     15600   1.56           0              142.02463      142.02463      0.0083733499   142.02463    
     15800   1.58           0              142.15452      142.15452      0.0068584392   142.15452    
     16000   1.6            0              142.39244      142.39244      0.0078935472   142.39244    
     16200   1.62           0              142.59801      142.59801      0.0090681826   142.59801    
     16400   1.64           0              142.91493      142.91493      0.0085521452   142.91493    
     16600   1.66           0              143.25872      143.25872      0.0093341067   143.25872    
     16800   1.68           0              143.56979      143.56979      0.0082572451   143.56979    
     17000   1.7            0              143.55971      143.55971      0.0091334372   143.55971    
     17200   1.72           0              143.74729      143.74729      0.010735563    143.74729    
     17400   1.74           0              143.70763      143.70763      0.0097834556   143.70763    
     17600   1.76           0              144.01748      144.01748      0.0079998061   144.01748    
     17800   1.78           0              143.83844      143.83844      0.01157735     143.83844    
     18000   1.8            0              143.78674      143.78674      0.0083542014   143.78674    
     18200   1.82           0              143.98941      143.98941      0.0061449541   143.98941    
     18400   1.84           0              144.2304       144.2304       0.004158193    144.2304     
     18600   1.86           0              144.30846      144.30846      0.0024305658   144.30846    
     18800   1.88           0              144.34027      144.34027      0.0034545643   144.34027    
     19000   1.9            0              144.56112      144.56112      0.0047112566   144.56112    
     19200   1.92           0              144.866        144.866        0.005338078    144.866      
     19400   1.94           0              144.89405      144.89405      0.0058207088   144.89405    
     19600   1.96           0              145.19178      145.19178      0.0072260355   145.19178    
     19800   1.98           0              144.76466      144.76466      0.0073366843   144.76466    
     20000   2              0              144.93706      144.93706      0.0070223208   144.93706    
     20200   2.02           0              145.11343      145.11343      0.0060744707   145.11343    
     20400   2.04           0              145.1305       145.1305       0.0051673487   145.1305     
     20600   2.06           0              145.02497      145.02497      0.0052540775   145.02497    
     20800   2.08           0              145.5093       145.5093       0.0093957938   145.5093     
     21000   2.1            0              145.5873       145.5873       0.0071544653   145.5873     
     21200   2.12           0              145.69381      145.69381      0.0061175269   145.69381    
     21400   2.14           0              146.05065      146.05065      0.0057395671   146.05065    
     21600   2.16           0              146.30574      146.30574      0.0055330641   146.30574    
     21800   2.18           0              146.43462      146.43462      0.0053309202   146.43462    
     22000   2.2            0              146.70098      146.70098      0.0069296074   146.70098    
     22200   2.22           0              146.68429      146.68429      0.0051283839   146.68429    
     22400   2.24           0              146.72832      146.72832      0.0041890903   146.72832    
     22522   2.2522         0              146.8174       146.8174       0.0034336065   146.8174     
Loop time of 517.074 on 1 procs for 20000 steps with 15000 atoms

Performance: 0.334 ns/day, 71.816 hours/ns, 38.679 timesteps/s, 580.188 katom-step/s
99.9% CPU use with 1 MPI tasks x 1 OpenMP threads

MPI task timing breakdown:
Section |  min time  |  avg time  |  max time  |%varavg| %total
---------------------------------------------------------------
Pair    | 132.52     | 132.52     | 132.52     |   0.0 | 25.63
Neigh   | 0          | 0          | 0          |   0.0 |  0.00
Comm    | 1.1981     | 1.1981     | 1.1981     |   0.0 |  0.23
Output  | 0.87011    | 0.87011    | 0.87011    |   0.0 |  0.17
Modify  | 378.94     | 378.94     | 378.94     |   0.0 | 73.28
Other   |            | 3.546      |            |       |  0.69

Nlocal:          15000 ave       15000 max       15000 min
Histogram: 1 0 0 0 0 0 0 0 0 0
Nghost:            707 ave         707 max         707 min
Histogram: 1 0 0 0 0 0 0 0 0 0
Neighs:              0 ave           0 max           0 min
Histogram: 1 0 0 0 0 0 0 0 0 0
FullNghs:        90000 ave       90000 max       90000 min
Histogram: 1 0 0 0 0 0 0 0 0 0

Total # of neighbors = 90000
Ave neighs/atom = 6
Neighbor list builds = 0
Dangerous builds = 0
DYNAMICS_T150_DONE
Total wall time: 0:08:37
=== T = 180 K ===
LAMMPS (10 Dec 2025 - Development - patch_10Dec2025-120-ga51f9ba0e7)
OMP_NUM_THREADS environment is not set. Defaulting to 1 thread.
  using 1 OpenMP thread(s) per MPI task
Reading restart file ...
  restart file = 10 Dec 2025, LAMMPS = 10 Dec 2025
  restoring atom style spin from restart
  orthogonal box = (0 0 -1.3575) to (407.25 235.1259 1.3575)
  1 by 1 by 1 MPI processor grid
  restoring pair style hybrid/overlay from restart
  15000 atoms
  read_restart CPU = 0.004 seconds

CITE-CITE-CITE-CITE-CITE-CITE-CITE-CITE-CITE-CITE-CITE-CITE-CITE

Your simulation uses code contributions which should be cited:
- fix nve/spin command: https://doi.org/10.1016/j.jcp.2018.06.042
The log file lists these citations in BibTeX format.

CITE-CITE-CITE-CITE-CITE-CITE-CITE-CITE-CITE-CITE-CITE-CITE-CITE

Generated 0 of 0 mixed pair_coeff terms from geometric mixing rule
Neighbor list info ...
  update: every = 10 steps, delay = 20 steps, check = yes
  max neighbors/atom: 2000, page size: 100000
  master list distance cutoff = 3.558
  ghost atom cutoff = 3.558
  binsize = 1.779, bins = 229 133 2
  3 neighbor lists, perpetual/occasional/extra = 3 0 0
  (1) pair spin/exchange, perpetual
      attributes: full, newton on
      pair build: full/bin/atomonly
      stencil: full/bin/3d
      bin: standard
  (2) pair spin/dmi, perpetual, copy from (1)
      attributes: full, newton on
      pair build: copy
      stencil: none
      bin: none
  (3) pair spin/magelec, perpetual, copy from (1)
      attributes: full, newton on
      pair build: copy
      stencil: none
      bin: none
WARNING: Dump 1 includes no atom IDs and is not sorted by ID. This may complicate post-processing tasks or visualization (src/dump.cpp:220)
Setting up Verlet run ...
  Unit style    : metal
  Current step  : 2522
  Time step     : 0.0001
Per MPI rank memory allocation (min/avg/max) = 6.591 | 6.591 | 6.591 Mbytes
   Step          Time           Temp          PotEng         TotEng      c_out_mag[4]   c_out_mag[5] 
      2522   0.2522         0             -1.0275171     -1.0275171      0.030922721   -1.0275171    
      2600   0.26           0              5.0651887      5.0651887      0.030374376    5.0651887    
      2800   0.28           0              19.024251      19.024251      0.031309444    19.024251    
      3000   0.3            0              31.201435      31.201435      0.031324009    31.201435    
      3200   0.32           0              41.338928      41.338928      0.029609359    41.338928    
      3400   0.34           0              50.070655      50.070655      0.030412225    50.070655    
      3600   0.36           0              57.842719      57.842719      0.030243651    57.842719    
      3800   0.38           0              64.777646      64.777646      0.026173836    64.777646    
      4000   0.4            0              71.508169      71.508169      0.024889768    71.508169    
      4200   0.42           0              77.618461      77.618461      0.025588588    77.618461    
      4400   0.44           0              82.853851      82.853851      0.02288819     82.853851    
      4600   0.46           0              87.396554      87.396554      0.021286838    87.396554    
      4800   0.48           0              91.972864      91.972864      0.021645509    91.972864    
      5000   0.5            0              95.948801      95.948801      0.018318681    95.948801    
      5200   0.52           0              99.591212      99.591212      0.017584091    99.591212    
      5400   0.54           0              102.4683       102.4683       0.016996434    102.4683     
      5600   0.56           0              105.81351      105.81351      0.015953993    105.81351    
      5800   0.58           0              108.18097      108.18097      0.017894815    108.18097    
      6000   0.6            0              110.78995      110.78995      0.017410264    110.78995    
      6200   0.62           0              113.57358      113.57358      0.014937854    113.57358    
      6400   0.64           0              116.10915      116.10915      0.014194925    116.10915    
      6600   0.66           0              118.51736      118.51736      0.013494673    118.51736    
      6800   0.68           0              120.82675      120.82675      0.013752595    120.82675    
      7000   0.7            0              122.57804      122.57804      0.012937283    122.57804    
      7200   0.72           0              124.75176      124.75176      0.013327594    124.75176    
      7400   0.74           0              126.23796      126.23796      0.013204988    126.23796    
      7600   0.76           0              127.69119      127.69119      0.01371194     127.69119    
      7800   0.78           0              129.01923      129.01923      0.01367616     129.01923    
      8000   0.8            0              130.67727      130.67727      0.010818085    130.67727    
      8200   0.82           0              131.58418      131.58418      0.0080952758   131.58418    
      8400   0.84           0              132.44686      132.44686      0.0092838629   132.44686    
      8600   0.86           0              133.8555       133.8555       0.0096256064   133.8555     
      8800   0.88           0              134.66456      134.66456      0.011994681    134.66456    
      9000   0.9            0              135.47191      135.47191      0.012177408    135.47191    
      9200   0.92           0              136.46733      136.46733      0.013853037    136.46733    
      9400   0.94           0              137.2071       137.2071       0.014993739    137.2071     
      9600   0.96           0              138.02642      138.02642      0.014259425    138.02642    
      9800   0.98           0              139.09507      139.09507      0.012196964    139.09507    
     10000   1              0              139.7045       139.7045       0.01277772     139.7045     
     10200   1.02           0              140.3679       140.3679       0.011511503    140.3679     
     10400   1.04           0              141.22172      141.22172      0.010287697    141.22172    
     10600   1.06           0              141.85129      141.85129      0.0099372912   141.85129    
     10800   1.08           0              142.58182      142.58182      0.011530165    142.58182    
     11000   1.1            0              143.49758      143.49758      0.0096113475   143.49758    
     11200   1.12           0              144.15683      144.15683      0.010121056    144.15683    
     11400   1.14           0              144.54866      144.54866      0.0066414563   144.54866    
     11600   1.16           0              145.12216      145.12216      0.0069633357   145.12216    
     11800   1.18           0              145.4811       145.4811       0.0073016946   145.4811     
     12000   1.2            0              145.86444      145.86444      0.0095559106   145.86444    
     12200   1.22           0              146.08936      146.08936      0.010023292    146.08936    
     12400   1.24           0              146.4188       146.4188       0.0086337712   146.4188     
     12600   1.26           0              146.47939      146.47939      0.010831499    146.47939    
     12800   1.28           0              146.56778      146.56778      0.0099288598   146.56778    
     13000   1.3            0              147.47843      147.47843      0.011219946    147.47843    
     13200   1.32           0              147.74494      147.74494      0.012982233    147.74494    
     13400   1.34           0              147.72702      147.72702      0.011354671    147.72702    
     13600   1.36           0              147.77351      147.77351      0.010847189    147.77351    
     13800   1.38           0              147.6639       147.6639       0.011367344    147.6639     
     14000   1.4            0              147.88892      147.88892      0.010501631    147.88892    
     14200   1.42           0              147.76766      147.76766      0.0095581407   147.76766    
     14400   1.44           0              147.99951      147.99951      0.010742495    147.99951    
     14600   1.46           0              148.18951      148.18951      0.0080854063   148.18951    
     14800   1.48           0              148.52454      148.52454      0.010986408    148.52454    
     15000   1.5            0              148.95979      148.95979      0.012187645    148.95979    
     15200   1.52           0              149.10415      149.10415      0.012436466    149.10415    
     15400   1.54           0              149.15096      149.15096      0.013702913    149.15096    
     15600   1.56           0              149.20085      149.20085      0.012312525    149.20085    
     15800   1.58           0              149.58451      149.58451      0.012383134    149.58451    
     16000   1.6            0              149.77889      149.77889      0.011287487    149.77889    
     16200   1.62           0              150.00146      150.00146      0.010562796    150.00146    
     16400   1.64           0              150.53518      150.53518      0.012154742    150.53518    
     16600   1.66           0              150.79984      150.79984      0.012272056    150.79984    
     16800   1.68           0              150.57327      150.57327      0.011331734    150.57327    
     17000   1.7            0              150.45091      150.45091      0.009749265    150.45091    
     17200   1.72           0              150.23769      150.23769      0.011699111    150.23769    
     17400   1.74           0              150.42943      150.42943      0.01242206     150.42943    
     17600   1.76           0              150.8266       150.8266       0.012956946    150.8266     
     17800   1.78           0              151.20245      151.20245      0.010158495    151.20245    
     18000   1.8            0              151.07329      151.07329      0.0092136005   151.07329    
     18200   1.82           0              151.26277      151.26277      0.010344112    151.26277    
     18400   1.84           0              151.35089      151.35089      0.011834326    151.35089    
     18600   1.86           0              151.69559      151.69559      0.0092128519   151.69559    
     18800   1.88           0              151.39603      151.39603      0.008746186    151.39603    
     19000   1.9            0              151.25126      151.25126      0.010411499    151.25126    
     19200   1.92           0              151.18258      151.18258      0.0095080297   151.18258    
     19400   1.94           0              151.31336      151.31336      0.012007252    151.31336    
     19600   1.96           0              151.44244      151.44244      0.012675858    151.44244    
     19800   1.98           0              151.24158      151.24158      0.0098651732   151.24158    
     20000   2              0              150.99311      150.99311      0.011492643    150.99311    
     20200   2.02           0              150.84176      150.84176      0.0095996987   150.84176    
     20400   2.04           0              150.57924      150.57924      0.010688843    150.57924    
     20600   2.06           0              150.77895      150.77895      0.010078942    150.77895    
     20800   2.08           0              150.82734      150.82734      0.0097965588   150.82734    
     21000   2.1            0              150.68639      150.68639      0.0089938671   150.68639    
     21200   2.12           0              150.58263      150.58263      0.0072187069   150.58263    
     21400   2.14           0              150.53524      150.53524      0.0057894986   150.53524    
     21600   2.16           0              150.48265      150.48265      0.0075428791   150.48265    
     21800   2.18           0              150.22547      150.22547      0.0087216419   150.22547    
     22000   2.2            0              150.38345      150.38345      0.0097809188   150.38345    
     22200   2.22           0              150.70878      150.70878      0.011980558    150.70878    
     22400   2.24           0              150.89992      150.89992      0.013664698    150.89992    
     22522   2.2522         0              150.76588      150.76588      0.013300386    150.76588    
Loop time of 520.013 on 1 procs for 20000 steps with 15000 atoms

Performance: 0.332 ns/day, 72.224 hours/ns, 38.461 timesteps/s, 576.908 katom-step/s
99.9% CPU use with 1 MPI tasks x 1 OpenMP threads

MPI task timing breakdown:
Section |  min time  |  avg time  |  max time  |%varavg| %total
---------------------------------------------------------------
Pair    | 132.87     | 132.87     | 132.87     |   0.0 | 25.55
Neigh   | 0          | 0          | 0          |   0.0 |  0.00
Comm    | 1.2586     | 1.2586     | 1.2586     |   0.0 |  0.24
Output  | 0.88431    | 0.88431    | 0.88431    |   0.0 |  0.17
Modify  | 381.29     | 381.29     | 381.29     |   0.0 | 73.32
Other   |            | 3.711      |            |       |  0.71

Nlocal:          15000 ave       15000 max       15000 min
Histogram: 1 0 0 0 0 0 0 0 0 0
Nghost:            707 ave         707 max         707 min
Histogram: 1 0 0 0 0 0 0 0 0 0
Neighs:              0 ave           0 max           0 min
Histogram: 1 0 0 0 0 0 0 0 0 0
FullNghs:        90000 ave       90000 max       90000 min
Histogram: 1 0 0 0 0 0 0 0 0 0

Total # of neighbors = 90000
Ave neighs/atom = 6
Neighbor list builds = 0
Dangerous builds = 0
DYNAMICS_T180_DONE
Total wall time: 0:08:40
=== T = 200 K ===
LAMMPS (10 Dec 2025 - Development - patch_10Dec2025-120-ga51f9ba0e7)
OMP_NUM_THREADS environment is not set. Defaulting to 1 thread.
  using 1 OpenMP thread(s) per MPI task
Reading restart file ...
  restart file = 10 Dec 2025, LAMMPS = 10 Dec 2025
  restoring atom style spin from restart
  orthogonal box = (0 0 -1.3575) to (407.25 235.1259 1.3575)
  1 by 1 by 1 MPI processor grid
  restoring pair style hybrid/overlay from restart
  15000 atoms
  read_restart CPU = 0.003 seconds

CITE-CITE-CITE-CITE-CITE-CITE-CITE-CITE-CITE-CITE-CITE-CITE-CITE

Your simulation uses code contributions which should be cited:
- fix nve/spin command: https://doi.org/10.1016/j.jcp.2018.06.042
The log file lists these citations in BibTeX format.

CITE-CITE-CITE-CITE-CITE-CITE-CITE-CITE-CITE-CITE-CITE-CITE-CITE

Generated 0 of 0 mixed pair_coeff terms from geometric mixing rule
Neighbor list info ...
  update: every = 10 steps, delay = 20 steps, check = yes
  max neighbors/atom: 2000, page size: 100000
  master list distance cutoff = 3.558
  ghost atom cutoff = 3.558
  binsize = 1.779, bins = 229 133 2
  3 neighbor lists, perpetual/occasional/extra = 3 0 0
  (1) pair spin/exchange, perpetual
      attributes: full, newton on
      pair build: full/bin/atomonly
      stencil: full/bin/3d
      bin: standard
  (2) pair spin/dmi, perpetual, copy from (1)
      attributes: full, newton on
      pair build: copy
      stencil: none
      bin: none
  (3) pair spin/magelec, perpetual, copy from (1)
      attributes: full, newton on
      pair build: copy
      stencil: none
      bin: none
WARNING: Dump 1 includes no atom IDs and is not sorted by ID. This may complicate post-processing tasks or visualization (src/dump.cpp:220)
Setting up Verlet run ...
  Unit style    : metal
  Current step  : 2522
  Time step     : 0.0001
Per MPI rank memory allocation (min/avg/max) = 6.591 | 6.591 | 6.591 Mbytes
   Step          Time           Temp          PotEng         TotEng      c_out_mag[4]   c_out_mag[5] 
      2522   0.2522         0             -1.0275171     -1.0275171      0.030922721   -1.0275171    
      2600   0.26           0              5.7283875      5.7283875      0.030319275    5.7283875    
      2800   0.28           0              21.107222      21.107222      0.031281092    21.107222    
      3000   0.3            0              34.41251       34.41251       0.031186452    34.41251     
      3200   0.32           0              45.392736      45.392736      0.029323067    45.392736    
      3400   0.34           0              54.786555      54.786555      0.030169995    54.786555    
      3600   0.36           0              63.119202      63.119202      0.030004888    63.119202    
      3800   0.38           0              70.531832      70.531832      0.025747813    70.531832    
      4000   0.4            0              77.674296      77.674296      0.024459057    77.674296    
      4200   0.42           0              84.05279       84.05279       0.025121764    84.05279     
      4400   0.44           0              89.538527      89.538527      0.022343035    89.538527    
      4600   0.46           0              94.290642      94.290642      0.020538409    94.290642    
      4800   0.48           0              99.049529      99.049529      0.020855661    99.049529    
      5000   0.5            0              103.11112      103.11112      0.017081454    103.11112    
      5200   0.52           0              106.80307      106.80307      0.016199666    106.80307    
      5400   0.54           0              109.72057      109.72057      0.015936759    109.72057    
      5600   0.56           0              113.17456      113.17456      0.015023515    113.17456    
      5800   0.58           0              115.4742       115.4742       0.017158043    115.4742     
      6000   0.6            0              118.17895      118.17895      0.01653192     118.17895    
      6200   0.62           0              120.9446       120.9446       0.013689267    120.9446     
      6400   0.64           0              123.31741      123.31741      0.0129133      123.31741    
      6600   0.66           0              125.67893      125.67893      0.011989835    125.67893    
      6800   0.68           0              127.70466      127.70466      0.01235157     127.70466    
      7000   0.7            0              129.21018      129.21018      0.011267048    129.21018    
      7200   0.72           0              131.3223       131.3223       0.012322659    131.3223     
      7400   0.74           0              132.70561      132.70561      0.012700915    132.70561    
      7600   0.76           0              134.08026      134.08026      0.012917667    134.08026    
      7800   0.78           0              135.18408      135.18408      0.01299989     135.18408    
      8000   0.8            0              136.64053      136.64053      0.011773305    136.64053    
      8200   0.82           0              137.36111      137.36111      0.0090944884   137.36111    
      8400   0.84           0              138.34581      138.34581      0.010919151    138.34581    
      8600   0.86           0              139.70917      139.70917      0.0095851798   139.70917    
      8800   0.88           0              140.63789      140.63789      0.013357326    140.63789    
      9000   0.9            0              141.52529      141.52529      0.014609498    141.52529    
      9200   0.92           0              142.38176      142.38176      0.015439905    142.38176    
      9400   0.94           0              142.79512      142.79512      0.015746664    142.79512    
      9600   0.96           0              143.64373      143.64373      0.014235977    143.64373    
      9800   0.98           0              144.3372       144.3372       0.012669237    144.3372     
     10000   1              0              145.32848      145.32848      0.013767033    145.32848    
     10200   1.02           0              145.88923      145.88923      0.014539711    145.88923    
     10400   1.04           0              146.58961      146.58961      0.0155691      146.58961    
     10600   1.06           0              147.22347      147.22347      0.01576897     147.22347    
     10800   1.08           0              147.44307      147.44307      0.01644403     147.44307    
     11000   1.1            0              148.08995      148.08995      0.014723133    148.08995    
     11200   1.12           0              148.44601      148.44601      0.014245071    148.44601    
     11400   1.14           0              148.72971      148.72971      0.01231688     148.72971    
     11600   1.16           0              149.16051      149.16051      0.0091894607   149.16051    
     11800   1.18           0              149.60316      149.60316      0.0092739914   149.60316    
     12000   1.2            0              149.8915       149.8915       0.0088222508   149.8915     
     12200   1.22           0              150.34213      150.34213      0.0079015821   150.34213    
     12400   1.24           0              150.55173      150.55173      0.0079102136   150.55173    
     12600   1.26           0              150.42377      150.42377      0.0072411317   150.42377    
     12800   1.28           0              151.0354       151.0354       0.0057600812   151.0354     
     13000   1.3            0              151.17217      151.17217      0.0072607436   151.17217    
     13200   1.32           0              151.50126      151.50126      0.0066274236   151.50126    
     13400   1.34           0              151.48431      151.48431      0.0046750357   151.48431    
     13600   1.36           0              151.28375      151.28375      0.004303092    151.28375    
     13800   1.38           0              151.28041      151.28041      0.0056569781   151.28041    
     14000   1.4            0              151.66345      151.66345      0.0050416038   151.66345    
     14200   1.42           0              151.44294      151.44294      0.0063912311   151.44294    
     14400   1.44           0              152.00266      152.00266      0.0056697148   152.00266    
     14600   1.46           0              152.18514      152.18514      0.0074548484   152.18514    
     14800   1.48           0              152.24923      152.24923      0.0080355934   152.24923    
     15000   1.5            0              152.51225      152.51225      0.0093288746   152.51225    
     15200   1.52           0              152.41042      152.41042      0.0092507928   152.41042    
     15400   1.54           0              152.33288      152.33288      0.0079630471   152.33288    
     15600   1.56           0              152.57753      152.57753      0.0078231382   152.57753    
     15800   1.58           0              152.52485      152.52485      0.0082551339   152.52485    
     16000   1.6            0              152.62813      152.62813      0.0076062223   152.62813    
     16200   1.62           0              153.26666      153.26666      0.0061462139   153.26666    
     16400   1.64           0              153.79727      153.79727      0.0071147737   153.79727    
     16600   1.66           0              153.29541      153.29541      0.0064357493   153.29541    
     16800   1.68           0              153.18249      153.18249      0.0036441807   153.18249    
     17000   1.7            0              153.00692      153.00692      0.0014411667   153.00692    
     17200   1.72           0              153.35725      153.35725      0.0021084977   153.35725    
     17400   1.74           0              153.56264      153.56264      0.0018681234   153.56264    
     17600   1.76           0              153.77958      153.77958      0.0052238027   153.77958    
     17800   1.78           0              153.80572      153.80572      0.0017237799   153.80572    
     18000   1.8            0              153.72089      153.72089      0.0036818622   153.72089    
     18200   1.82           0              153.80328      153.80328      0.0045241964   153.80328    
     18400   1.84           0              153.78215      153.78215      0.0043404229   153.78215    
     18600   1.86           0              154.12013      154.12013      0.0063549226   154.12013    
     18800   1.88           0              154.14909      154.14909      0.0035421104   154.14909    
     19000   1.9            0              154.12637      154.12637      0.0041320421   154.12637    
     19200   1.92           0              154.25463      154.25463      0.0038787595   154.25463    
     19400   1.94           0              154.70883      154.70883      0.0053700734   154.70883    
     19600   1.96           0              154.87007      154.87007      0.0049952244   154.87007    
     19800   1.98           0              154.91236      154.91236      0.0054308521   154.91236    
     20000   2              0              154.37381      154.37381      0.0064357262   154.37381    
     20200   2.02           0              154.28074      154.28074      0.010876424    154.28074    
     20400   2.04           0              154.10861      154.10861      0.011430595    154.10861    
     20600   2.06           0              153.77161      153.77161      0.012854823    153.77161    
     20800   2.08           0              153.65506      153.65506      0.01260633     153.65506    
     21000   2.1            0              153.78325      153.78325      0.013421706    153.78325    
     21200   2.12           0              153.76902      153.76902      0.010791931    153.76902    
     21400   2.14           0              153.47865      153.47865      0.010335757    153.47865    
     21600   2.16           0              153.60068      153.60068      0.012043353    153.60068    
     21800   2.18           0              153.34473      153.34473      0.012907579    153.34473    
     22000   2.2            0              153.10188      153.10188      0.014616688    153.10188    
     22200   2.22           0              153.17756      153.17756      0.017191921    153.17756    
     22400   2.24           0              153.10564      153.10564      0.014215904    153.10564    
     22522   2.2522         0              152.99338      152.99338      0.012461595    152.99338    
Loop time of 514.187 on 1 procs for 20000 steps with 15000 atoms

Performance: 0.336 ns/day, 71.415 hours/ns, 38.896 timesteps/s, 583.446 katom-step/s
99.9% CPU use with 1 MPI tasks x 1 OpenMP threads

MPI task timing breakdown:
Section |  min time  |  avg time  |  max time  |%varavg| %total
---------------------------------------------------------------
Pair    | 131.92     | 131.92     | 131.92     |   0.0 | 25.66
Neigh   | 0          | 0          | 0          |   0.0 |  0.00
Comm    | 1.255      | 1.255      | 1.255      |   0.0 |  0.24
Output  | 0.86914    | 0.86914    | 0.86914    |   0.0 |  0.17
Modify  | 376.47     | 376.47     | 376.47     |   0.0 | 73.22
Other   |            | 3.674      |            |       |  0.71

Nlocal:          15000 ave       15000 max       15000 min
Histogram: 1 0 0 0 0 0 0 0 0 0
Nghost:            707 ave         707 max         707 min
Histogram: 1 0 0 0 0 0 0 0 0 0
Neighs:              0 ave           0 max           0 min
Histogram: 1 0 0 0 0 0 0 0 0 0
FullNghs:        90000 ave       90000 max       90000 min
Histogram: 1 0 0 0 0 0 0 0 0 0

Total # of neighbors = 90000
Ave neighs/atom = 6
Neighbor list builds = 0
Dangerous builds = 0
DYNAMICS_T200_DONE
Total wall time: 0:08:34
=== T = 214 K ===
LAMMPS (10 Dec 2025 - Development - patch_10Dec2025-120-ga51f9ba0e7)
OMP_NUM_THREADS environment is not set. Defaulting to 1 thread.
  using 1 OpenMP thread(s) per MPI task
Reading restart file ...
  restart file = 10 Dec 2025, LAMMPS = 10 Dec 2025
  restoring atom style spin from restart
  orthogonal box = (0 0 -1.3575) to (407.25 235.1259 1.3575)
  1 by 1 by 1 MPI processor grid
  restoring pair style hybrid/overlay from restart
  15000 atoms
  read_restart CPU = 0.003 seconds

CITE-CITE-CITE-CITE-CITE-CITE-CITE-CITE-CITE-CITE-CITE-CITE-CITE

Your simulation uses code contributions which should be cited:
- fix nve/spin command: https://doi.org/10.1016/j.jcp.2018.06.042
The log file lists these citations in BibTeX format.

CITE-CITE-CITE-CITE-CITE-CITE-CITE-CITE-CITE-CITE-CITE-CITE-CITE

Generated 0 of 0 mixed pair_coeff terms from geometric mixing rule
Neighbor list info ...
  update: every = 10 steps, delay = 20 steps, check = yes
  max neighbors/atom: 2000, page size: 100000
  master list distance cutoff = 3.558
  ghost atom cutoff = 3.558
  binsize = 1.779, bins = 229 133 2
  3 neighbor lists, perpetual/occasional/extra = 3 0 0
  (1) pair spin/exchange, perpetual
      attributes: full, newton on
      pair build: full/bin/atomonly
      stencil: full/bin/3d
      bin: standard
  (2) pair spin/dmi, perpetual, copy from (1)
      attributes: full, newton on
      pair build: copy
      stencil: none
      bin: none
  (3) pair spin/magelec, perpetual, copy from (1)
      attributes: full, newton on
      pair build: copy
      stencil: none
      bin: none
WARNING: Dump 1 includes no atom IDs and is not sorted by ID. This may complicate post-processing tasks or visualization (src/dump.cpp:220)
Setting up Verlet run ...
  Unit style    : metal
  Current step  : 2522
  Time step     : 0.0001
Per MPI rank memory allocation (min/avg/max) = 6.591 | 6.591 | 6.591 Mbytes
   Step          Time           Temp          PotEng         TotEng      c_out_mag[4]   c_out_mag[5] 
      2522   0.2522         0             -1.0275171     -1.0275171      0.030922721   -1.0275171    
      2600   0.26           0              6.1910199      6.1910199      0.030280844    6.1910199    
      2800   0.28           0              22.548872      22.548872      0.0312588      22.548872    
      3000   0.3            0              36.618827      36.618827      0.031084143    36.618827    
      3200   0.32           0              48.158689      48.158689      0.029119468    48.158689    
      3400   0.34           0              57.984388      57.984388      0.029997518    57.984388    
      3600   0.36           0              66.676992      66.676992      0.029836255    66.676992    
      3800   0.38           0              74.390372      74.390372      0.025458794    74.390372    
      4000   0.4            0              81.783776      81.783776      0.024171983    81.783776    
      4200   0.42           0              88.312488      88.312488      0.024801136    88.312488    
      4400   0.44           0              93.940134      93.940134      0.021986589    93.940134    
      4600   0.46           0              98.799793      98.799793      0.020047012    98.799793    
      4800   0.48           0              103.6443       103.6443       0.020311404    103.6443     
      5000   0.5            0              107.74063      107.74063      0.016222536    107.74063    
      5200   0.52           0              111.42188      111.42188      0.01524092     111.42188    
      5400   0.54           0              114.35194      114.35194      0.015212366    114.35194    
      5600   0.56           0              117.82775      117.82775      0.014446144    117.82775    
      5800   0.58           0              120.06993      120.06993      0.016637929    120.06993    
      6000   0.6            0              122.78188      122.78188      0.015992911    122.78188    
      6200   0.62           0              125.51193      125.51193      0.01298628     125.51193    
      6400   0.64           0              127.7715       127.7715       0.012504287    127.7715     
      6600   0.66           0              130.06532      130.06532      0.011464261    130.06532    
      6800   0.68           0              131.86847      131.86847      0.011891478    131.86847    
      7000   0.7            0              133.24564      133.24564      0.01055808     133.24564    
      7200   0.72           0              135.27301      135.27301      0.011864013    135.27301    
      7400   0.74           0              136.64418      136.64418      0.01279527     136.64418    
      7600   0.76           0              138.04543      138.04543      0.012531707    138.04543    
      7800   0.78           0              139.04496      139.04496      0.01305603     139.04496    
      8000   0.8            0              140.39498      140.39498      0.011757332    140.39498    
      8200   0.82           0              141.05557      141.05557      0.0085390182   141.05557    
      8400   0.84           0              141.99313      141.99313      0.009927179    141.99313    
      8600   0.86           0              143.23054      143.23054      0.0079396354   143.23054    
      8800   0.88           0              144.01399      144.01399      0.011033827    144.01399    
      9000   0.9            0              144.7952       144.7952       0.011639695    144.7952     
      9200   0.92           0              145.67211      145.67211      0.011432299    145.67211    
      9400   0.94           0              145.70724      145.70724      0.011309276    145.70724    
      9600   0.96           0              146.70588      146.70588      0.010058585    146.70588    
      9800   0.98           0              147.23422      147.23422      0.0074868113   147.23422    
     10000   1              0              148.26671      148.26671      0.0073881158   148.26671    
     10200   1.02           0              148.70699      148.70699      0.0078889852   148.70699    
     10400   1.04           0              149.42908      149.42908      0.0086565209   149.42908    
     10600   1.06           0              149.88177      149.88177      0.0086722846   149.88177    
     10800   1.08           0              150.01044      150.01044      0.0090124434   150.01044    
     11000   1.1            0              150.30075      150.30075      0.0082105558   150.30075    
     11200   1.12           0              150.75392      150.75392      0.008268657    150.75392    
     11400   1.14           0              151.06785      151.06785      0.0078436913   151.06785    
     11600   1.16           0              151.59393      151.59393      0.0070439338   151.59393    
     11800   1.18           0              152.15476      152.15476      0.0082706773   152.15476    
     12000   1.2            0              152.33417      152.33417      0.0066393427   152.33417    
     12200   1.22           0              153.12311      153.12311      0.0053738382   153.12311    
     12400   1.24           0              153.10258      153.10258      0.0047830926   153.10258    
     12600   1.26           0              153.66057      153.66057      0.0063655265   153.66057    
     12800   1.28           0              154.17077      154.17077      0.0076642647   154.17077    
     13000   1.3            0              153.93414      153.93414      0.0077361725   153.93414    
     13200   1.32           0              154.09021      154.09021      0.004939695    154.09021    
     13400   1.34           0              154.35234      154.35234      0.0034261299   154.35234    
     13600   1.36           0              154.43017      154.43017      0.0067712728   154.43017    
     13800   1.38           0              154.37931      154.37931      0.0081821612   154.37931    
     14000   1.4            0              154.72121      154.72121      0.0069989501   154.72121    
     14200   1.42           0              154.76917      154.76917      0.010091773    154.76917    
     14400   1.44           0              154.9011       154.9011       0.0069027026   154.9011     
     14600   1.46           0              155.09139      155.09139      0.0078043857   155.09139    
     14800   1.48           0              154.83082      154.83082      0.0089667177   154.83082    
     15000   1.5            0              155.21947      155.21947      0.0088260921   155.21947    
     15200   1.52           0              155.20687      155.20687      0.00847016     155.20687    
     15400   1.54           0              155.13505      155.13505      0.0094159821   155.13505    
     15600   1.56           0              154.69811      154.69811      0.01184734     154.69811    
     15800   1.58           0              154.94602      154.94602      0.012918174    154.94602    
     16000   1.6            0              154.81765      154.81765      0.010921162    154.81765    
     16200   1.62           0              155.21361      155.21361      0.010424674    155.21361    
     16400   1.64           0              155.04762      155.04762      0.010861688    155.04762    
     16600   1.66           0              154.82968      154.82968      0.0073886445   154.82968    
     16800   1.68           0              155.00698      155.00698      0.010266384    155.00698    
     17000   1.7            0              154.89398      154.89398      0.011747162    154.89398    
     17200   1.72           0              155.02569      155.02569      0.012880821    155.02569    
     17400   1.74           0              155.12085      155.12085      0.013329025    155.12085    
     17600   1.76           0              155.26999      155.26999      0.013497693    155.26999    
     17800   1.78           0              155.86646      155.86646      0.014830099    155.86646    
     18000   1.8            0              156.03142      156.03142      0.013456364    156.03142    
     18200   1.82           0              156.3009       156.3009       0.01298621     156.3009     
     18400   1.84           0              156.28348      156.28348      0.011197894    156.28348    
     18600   1.86           0              156.1112       156.1112       0.010282818    156.1112     
     18800   1.88           0              156.10702      156.10702      0.010476285    156.10702    
     19000   1.9            0              156.26959      156.26959      0.01121991     156.26959    
     19200   1.92           0              156.25863      156.25863      0.010683251    156.25863    
     19400   1.94           0              155.75944      155.75944      0.012566034    155.75944    
     19600   1.96           0              155.61478      155.61478      0.013376367    155.61478    
     19800   1.98           0              155.56073      155.56073      0.012989688    155.56073    
     20000   2              0              155.57866      155.57866      0.012036296    155.57866    
     20200   2.02           0              155.55466      155.55466      0.012109318    155.55466    
     20400   2.04           0              155.53073      155.53073      0.013506444    155.53073    
     20600   2.06           0              155.80946      155.80946      0.012934004    155.80946    
     20800   2.08           0              155.75548      155.75548      0.011714715    155.75548    
     21000   2.1            0              156.01193      156.01193      0.012348548    156.01193    
     21200   2.12           0              155.57198      155.57198      0.013638863    155.57198    
     21400   2.14           0              155.54091      155.54091      0.01579294     155.54091    
     21600   2.16           0              155.48245      155.48245      0.014993873    155.48245    
     21800   2.18           0              155.28292      155.28292      0.014770079    155.28292    
     22000   2.2            0              155.00898      155.00898      0.01449389     155.00898    
     22200   2.22           0              155.27126      155.27126      0.015134179    155.27126    
     22400   2.24           0              155.50988      155.50988      0.015154549    155.50988    
     22522   2.2522         0              155.65207      155.65207      0.014634598    155.65207    
Loop time of 518.674 on 1 procs for 20000 steps with 15000 atoms

Performance: 0.333 ns/day, 72.038 hours/ns, 38.560 timesteps/s, 578.398 katom-step/s
99.9% CPU use with 1 MPI tasks x 1 OpenMP threads

MPI task timing breakdown:
Section |  min time  |  avg time  |  max time  |%varavg| %total
---------------------------------------------------------------
Pair    | 132.7      | 132.7      | 132.7      |   0.0 | 25.58
Neigh   | 0          | 0          | 0          |   0.0 |  0.00
Comm    | 1.3024     | 1.3024     | 1.3024     |   0.0 |  0.25
Output  | 0.86028    | 0.86028    | 0.86028    |   0.0 |  0.17
Modify  | 380.26     | 380.26     | 380.26     |   0.0 | 73.31
Other   |            | 3.556      |            |       |  0.69

Nlocal:          15000 ave       15000 max       15000 min
Histogram: 1 0 0 0 0 0 0 0 0 0
Nghost:            707 ave         707 max         707 min
Histogram: 1 0 0 0 0 0 0 0 0 0
Neighs:              0 ave           0 max           0 min
Histogram: 1 0 0 0 0 0 0 0 0 0
FullNghs:        90000 ave       90000 max       90000 min
Histogram: 1 0 0 0 0 0 0 0 0 0

Total # of neighbors = 90000
Ave neighs/atom = 6
Neighbor list builds = 0
Dangerous builds = 0
DYNAMICS_T214_DONE
Total wall time: 0:08:38
=== T = 230 K ===
LAMMPS (10 Dec 2025 - Development - patch_10Dec2025-120-ga51f9ba0e7)
OMP_NUM_THREADS environment is not set. Defaulting to 1 thread.
  using 1 OpenMP thread(s) per MPI task
Reading restart file ...
  restart file = 10 Dec 2025, LAMMPS = 10 Dec 2025
  restoring atom style spin from restart
  orthogonal box = (0 0 -1.3575) to (407.25 235.1259 1.3575)
  1 by 1 by 1 MPI processor grid
  restoring pair style hybrid/overlay from restart
  15000 atoms
  read_restart CPU = 0.003 seconds

CITE-CITE-CITE-CITE-CITE-CITE-CITE-CITE-CITE-CITE-CITE-CITE-CITE

Your simulation uses code contributions which should be cited:
- fix nve/spin command: https://doi.org/10.1016/j.jcp.2018.06.042
The log file lists these citations in BibTeX format.

CITE-CITE-CITE-CITE-CITE-CITE-CITE-CITE-CITE-CITE-CITE-CITE-CITE

Generated 0 of 0 mixed pair_coeff terms from geometric mixing rule
Neighbor list info ...
  update: every = 10 steps, delay = 20 steps, check = yes
  max neighbors/atom: 2000, page size: 100000
  master list distance cutoff = 3.558
  ghost atom cutoff = 3.558
  binsize = 1.779, bins = 229 133 2
  3 neighbor lists, perpetual/occasional/extra = 3 0 0
  (1) pair spin/exchange, perpetual
      attributes: full, newton on
      pair build: full/bin/atomonly
      stencil: full/bin/3d
      bin: standard
  (2) pair spin/dmi, perpetual, copy from (1)
      attributes: full, newton on
      pair build: copy
      stencil: none
      bin: none
  (3) pair spin/magelec, perpetual, copy from (1)
      attributes: full, newton on
      pair build: copy
      stencil: none
      bin: none
WARNING: Dump 1 includes no atom IDs and is not sorted by ID. This may complicate post-processing tasks or visualization (src/dump.cpp:220)
Setting up Verlet run ...
  Unit style    : metal
  Current step  : 2522
  Time step     : 0.0001
Per MPI rank memory allocation (min/avg/max) = 6.591 | 6.591 | 6.591 Mbytes
   Step          Time           Temp          PotEng         TotEng      c_out_mag[4]   c_out_mag[5] 
      2522   0.2522         0             -1.0275171     -1.0275171      0.030922721   -1.0275171    
      2600   0.26           0              6.7181287      6.7181287      0.030237047    6.7181287    
      2800   0.28           0              24.180079      24.180079      0.031231104    24.180079    
      3000   0.3            0              39.099158      39.099158      0.030961863    39.099158    
      3200   0.32           0              51.248886      51.248886      0.028884168    51.248886    
      3400   0.34           0              61.537452      61.537452      0.029798176    61.537452    
      3600   0.36           0              70.609749      70.609749      0.029642656    70.609749    
      3800   0.38           0              78.633611      78.633611      0.025137181    78.633611    
      4000   0.4            0              86.277429      86.277429      0.023856434    86.277429    
      4200   0.42           0              92.943426      92.943426      0.024439346    92.943426    
      4400   0.44           0              98.702421      98.702421      0.02160209     98.702421    
      4600   0.46           0              103.6462       103.6462       0.019518957    103.6462     
      4800   0.48           0              108.546        108.546        0.019694897    108.546      
      5000   0.5            0              112.66028      112.66028      0.015256382    112.66028    
      5200   0.52           0              116.28927      116.28927      0.014168053    116.28927    
      5400   0.54           0              119.22034      119.22034      0.014399768    119.22034    
      5600   0.56           0              122.68137      122.68137      0.013827347    122.68137    
      5800   0.58           0              124.84284      124.84284      0.016022535    124.84284    
      6000   0.6            0              127.50592      127.50592      0.015445011    127.50592    
      6200   0.62           0              130.1816       130.1816       0.01227645     130.1816     
      6400   0.64           0              132.31213      132.31213      0.012321483    132.31213    
      6600   0.66           0              134.50297      134.50297      0.011205973    134.50297    
      6800   0.68           0              136.10958      136.10958      0.011775769    136.10958    
      7000   0.7            0              137.38694      137.38694      0.010454666    137.38694    
      7200   0.72           0              139.30152      139.30152      0.011726241    139.30152    
      7400   0.74           0              140.70647      140.70647      0.013236902    140.70647    
      7600   0.76           0              142.09715      142.09715      0.012020352    142.09715    
      7800   0.78           0              143.10342      143.10342      0.01257859     143.10342    
      8000   0.8            0              144.35772      144.35772      0.010408103    144.35772    
      8200   0.82           0              144.97808      144.97808      0.0069157537   144.97808    
      8400   0.84           0              145.66164      145.66164      0.0073855676   145.66164    
      8600   0.86           0              146.5807       146.5807       0.0053212104   146.5807     
      8800   0.88           0              147.26356      147.26356      0.0074224488   147.26356    
      9000   0.9            0              147.88635      147.88635      0.0070958387   147.88635    
      9200   0.92           0              148.77341      148.77341      0.0074885037   148.77341    
      9400   0.94           0              148.89799      148.89799      0.0076835615   148.89799    
      9600   0.96           0              149.68896      149.68896      0.0054474642   149.68896    
      9800   0.98           0              150.02878      150.02878      0.0067823793   150.02878    
     10000   1              0              150.989        150.989        0.0061929814   150.989      
     10200   1.02           0              151.12097      151.12097      0.0075041148   151.12097    
     10400   1.04           0              151.64889      151.64889      0.008121163    151.64889    
     10600   1.06           0              152.09248      152.09248      0.0095674894   152.09248    
     10800   1.08           0              152.53331      152.53331      0.0082862028   152.53331    
     11000   1.1            0              152.97134      152.97134      0.0083616916   152.97134    
     11200   1.12           0              153.56571      153.56571      0.0085448314   153.56571    
     11400   1.14           0              154.00737      154.00737      0.0082826732   154.00737    
     11600   1.16           0              154.57668      154.57668      0.0064995833   154.57668    
     11800   1.18           0              154.5909       154.5909       0.0045810641   154.5909     
     12000   1.2            0              154.87714      154.87714      0.0054642549   154.87714    
     12200   1.22           0              155.01039      155.01039      0.0062637935   155.01039    
     12400   1.24           0              155.22525      155.22525      0.0077964027   155.22525    
     12600   1.26           0              155.4643       155.4643       0.0078547655   155.4643     
     12800   1.28           0              155.70991      155.70991      0.0090499352   155.70991    
     13000   1.3            0              155.4531       155.4531       0.010010833    155.4531     
     13200   1.32           0              155.90966      155.90966      0.011244814    155.90966    
     13400   1.34           0              156.00748      156.00748      0.011692812    156.00748    
     13600   1.36           0              156.09467      156.09467      0.012163121    156.09467    
     13800   1.38           0              156.08641      156.08641      0.01185353     156.08641    
     14000   1.4            0              156.30129      156.30129      0.0096895177   156.30129    
     14200   1.42           0              156.60954      156.60954      0.011396529    156.60954    
     14400   1.44           0              156.53815      156.53815      0.013860904    156.53815    
     14600   1.46           0              156.46466      156.46466      0.013505453    156.46466    
     14800   1.48           0              156.2239       156.2239       0.014667612    156.2239     
     15000   1.5            0              156.30318      156.30318      0.013149538    156.30318    
     15200   1.52           0              156.22789      156.22789      0.012878755    156.22789    
     15400   1.54           0              156.28732      156.28732      0.012305725    156.28732    
     15600   1.56           0              156.1504       156.1504       0.0094802897   156.1504     
     15800   1.58           0              156.50784      156.50784      0.0073745124   156.50784    
     16000   1.6            0              156.57487      156.57487      0.0072197119   156.57487    
     16200   1.62           0              156.69006      156.69006      0.007528216    156.69006    
     16400   1.64           0              157.1334       157.1334       0.0093080447   157.1334     
     16600   1.66           0              156.91874      156.91874      0.0089955311   156.91874    
     16800   1.68           0              156.96116      156.96116      0.0078791923   156.96116    
     17000   1.7            0              157.0787       157.0787       0.008923091    157.0787     
     17200   1.72           0              157.05944      157.05944      0.010188577    157.05944    
     17400   1.74           0              157.25839      157.25839      0.0094965408   157.25839    
     17600   1.76           0              156.98615      156.98615      0.008705399    156.98615    
     17800   1.78           0              157.08826      157.08826      0.0089915644   157.08826    
     18000   1.8            0              157.06532      157.06532      0.010163281    157.06532    
     18200   1.82           0              157.28228      157.28228      0.0075807385   157.28228    
     18400   1.84           0              157.07224      157.07224      0.0083625524   157.07224    
     18600   1.86           0              157.01685      157.01685      0.0068643644   157.01685    
     18800   1.88           0              157.13485      157.13485      0.0043102225   157.13485    
     19000   1.9            0              157.13824      157.13824      0.0057883735   157.13824    
     19200   1.92           0              157.34427      157.34427      0.0051326716   157.34427    
     19400   1.94           0              157.20311      157.20311      0.0077776409   157.20311    
     19600   1.96           0              156.62467      156.62467      0.005500838    156.62467    
     19800   1.98           0              156.95099      156.95099      0.0055961901   156.95099    
     20000   2              0              157.05171      157.05171      0.0060205942   157.05171    
     20200   2.02           0              157.14487      157.14487      0.0074694032   157.14487    
     20400   2.04           0              156.79425      156.79425      0.007866491    156.79425    
     20600   2.06           0              156.84333      156.84333      0.0066604887   156.84333    
     20800   2.08           0              156.69487      156.69487      0.0057896861   156.69487    
     21000   2.1            0              156.39193      156.39193      0.006299653    156.39193    
     21200   2.12           0              156.40658      156.40658      0.0066966651   156.40658    
     21400   2.14           0              156.66357      156.66357      0.010788481    156.66357    
     21600   2.16           0              156.00814      156.00814      0.011896995    156.00814    
     21800   2.18           0              155.89879      155.89879      0.013537637    155.89879    
     22000   2.2            0              155.87442      155.87442      0.012161476    155.87442    
     22200   2.22           0              155.80478      155.80478      0.012346754    155.80478    
     22400   2.24           0              156.20966      156.20966      0.013307918    156.20966    
     22522   2.2522         0              156.53576      156.53576      0.012479041    156.53576    
Loop time of 519.848 on 1 procs for 20000 steps with 15000 atoms

Performance: 0.332 ns/day, 72.201 hours/ns, 38.473 timesteps/s, 577.092 katom-step/s
99.9% CPU use with 1 MPI tasks x 1 OpenMP threads

MPI task timing breakdown:
Section |  min time  |  avg time  |  max time  |%varavg| %total
---------------------------------------------------------------
Pair    | 133.41     | 133.41     | 133.41     |   0.0 | 25.66
Neigh   | 0          | 0          | 0          |   0.0 |  0.00
Comm    | 1.2609     | 1.2609     | 1.2609     |   0.0 |  0.24
Output  | 0.87694    | 0.87694    | 0.87694    |   0.0 |  0.17
Modify  | 380.88     | 380.88     | 380.88     |   0.0 | 73.27
Other   |            | 3.419      |            |       |  0.66

Nlocal:          15000 ave       15000 max       15000 min
Histogram: 1 0 0 0 0 0 0 0 0 0
Nghost:            707 ave         707 max         707 min
Histogram: 1 0 0 0 0 0 0 0 0 0
Neighs:              0 ave           0 max           0 min
Histogram: 1 0 0 0 0 0 0 0 0 0
FullNghs:        90000 ave       90000 max       90000 min
Histogram: 1 0 0 0 0 0 0 0 0 0

Total # of neighbors = 90000
Ave neighs/atom = 6
Neighbor list builds = 0
Dangerous builds = 0
DYNAMICS_T230_DONE
Total wall time: 0:08:39
=== T = 260 K ===
LAMMPS (10 Dec 2025 - Development - patch_10Dec2025-120-ga51f9ba0e7)
OMP_NUM_THREADS environment is not set. Defaulting to 1 thread.
  using 1 OpenMP thread(s) per MPI task
Reading restart file ...
  restart file = 10 Dec 2025, LAMMPS = 10 Dec 2025
  restoring atom style spin from restart
  orthogonal box = (0 0 -1.3575) to (407.25 235.1259 1.3575)
  1 by 1 by 1 MPI processor grid
  restoring pair style hybrid/overlay from restart
  15000 atoms
  read_restart CPU = 0.004 seconds

CITE-CITE-CITE-CITE-CITE-CITE-CITE-CITE-CITE-CITE-CITE-CITE-CITE

Your simulation uses code contributions which should be cited:
- fix nve/spin command: https://doi.org/10.1016/j.jcp.2018.06.042
The log file lists these citations in BibTeX format.

CITE-CITE-CITE-CITE-CITE-CITE-CITE-CITE-CITE-CITE-CITE-CITE-CITE

Generated 0 of 0 mixed pair_coeff terms from geometric mixing rule
Neighbor list info ...
  update: every = 10 steps, delay = 20 steps, check = yes
  max neighbors/atom: 2000, page size: 100000
  master list distance cutoff = 3.558
  ghost atom cutoff = 3.558
  binsize = 1.779, bins = 229 133 2
  3 neighbor lists, perpetual/occasional/extra = 3 0 0
  (1) pair spin/exchange, perpetual
      attributes: full, newton on
      pair build: full/bin/atomonly
      stencil: full/bin/3d
      bin: standard
  (2) pair spin/dmi, perpetual, copy from (1)
      attributes: full, newton on
      pair build: copy
      stencil: none
      bin: none
  (3) pair spin/magelec, perpetual, copy from (1)
      attributes: full, newton on
      pair build: copy
      stencil: none
      bin: none
WARNING: Dump 1 includes no atom IDs and is not sorted by ID. This may complicate post-processing tasks or visualization (src/dump.cpp:220)
Setting up Verlet run ...
  Unit style    : metal
  Current step  : 2522
  Time step     : 0.0001
Per MPI rank memory allocation (min/avg/max) = 6.591 | 6.591 | 6.591 Mbytes
   Step          Time           Temp          PotEng         TotEng      c_out_mag[4]   c_out_mag[5] 
      2522   0.2522         0             -1.0275171     -1.0275171      0.030922721   -1.0275171    
      2600   0.26           0              7.7018389      7.7018389      0.030155239    7.7018389    
      2800   0.28           0              27.192061      27.192061      0.031173482    27.192061    
      3000   0.3            0              43.6335        43.6335        0.030719215    43.6335      
      3200   0.32           0              56.84408       56.84408       0.028437171    56.84408     
      3400   0.34           0              67.916108      67.916108      0.029419946    67.916108    
      3600   0.36           0              77.612968      77.612968      0.029278828    77.612968    
      3800   0.38           0              86.126333      86.126333      0.024557675    86.126333    
      4000   0.4            0              94.140679      94.140679      0.023294864    94.140679    
      4200   0.42           0              100.97661      100.97661      0.023770554    100.97661    
      4400   0.44           0              106.90178      106.90178      0.020936796    106.90178    
      4600   0.46           0              111.89807      111.89807      0.018624747    111.89807    
      4800   0.48           0              116.78528      116.78528      0.018537467    116.78528    
      5000   0.5            0              120.87373      120.87373      0.013496716    120.87373    
      5200   0.52           0              124.32501      124.32501      0.012241097    124.32501    
      5400   0.54           0              127.22308      127.22308      0.012901451    127.22308    
      5600   0.56           0              130.60377      130.60377      0.012631822    130.60377    
      5800   0.58           0              132.55267      132.55267      0.014672648    132.55267    
      6000   0.6            0              134.99472      134.99472      0.014440451    134.99472    
      6200   0.62           0              137.50503      137.50503      0.010854667    137.50503    
      6400   0.64           0              139.41551      139.41551      0.012090566    139.41551    
      6600   0.66           0              141.37889      141.37889      0.010865241    141.37889    
      6800   0.68           0              142.82618      142.82618      0.011565291    142.82618    
      7000   0.7            0              144.00423      144.00423      0.011375355    144.00423    
      7200   0.72           0              145.50164      145.50164      0.012154251    145.50164    
      7400   0.74           0              146.79369      146.79369      0.013855847    146.79369    
      7600   0.76           0              147.92974      147.92974      0.012158334    147.92974    
      7800   0.78           0              149.03759      149.03759      0.012840813    149.03759    
      8000   0.8            0              150.14585      150.14585      0.0096845753   150.14585    
      8200   0.82           0              150.5055       150.5055       0.0079078955   150.5055     
      8400   0.84           0              150.77855      150.77855      0.0066027876   150.77855    
      8600   0.86           0              151.58454      151.58454      0.0062071623   151.58454    
      8800   0.88           0              151.95677      151.95677      0.0075178277   151.95677    
      9000   0.9            0              152.33105      152.33105      0.0082723944   152.33105    
      9200   0.92           0              152.9022       152.9022       0.011294441    152.9022     
      9400   0.94           0              153.49063      153.49063      0.011164211    153.49063    
      9600   0.96           0              153.94646      153.94646      0.0081171345   153.94646    
      9800   0.98           0              154.5344       154.5344       0.0072153837   154.5344     
     10000   1              0              155.57968      155.57968      0.0072143794   155.57968    
     10200   1.02           0              155.3199       155.3199       0.0074164086   155.3199     
     10400   1.04           0              155.2682       155.2682       0.010712512    155.2682     
     10600   1.06           0              155.38498      155.38498      0.010434146    155.38498    
     10800   1.08           0              155.94616      155.94616      0.0073777147   155.94616    
     11000   1.1            0              156.07349      156.07349      0.0080129944   156.07349    
     11200   1.12           0              156.44402      156.44402      0.0090998136   156.44402    
     11400   1.14           0              156.49123      156.49123      0.0083033671   156.49123    
     11600   1.16           0              156.64525      156.64525      0.007190963    156.64525    
     11800   1.18           0              156.86727      156.86727      0.0072858412   156.86727    
     12000   1.2            0              157.00121      157.00121      0.0046807745   157.00121    
     12200   1.22           0              157.41468      157.41468      0.0051320158   157.41468    
     12400   1.24           0              157.39784      157.39784      0.0073013122   157.39784    
     12600   1.26           0              157.35983      157.35983      0.0046022324   157.35983    
     12800   1.28           0              157.53158      157.53158      0.0040823294   157.53158    
     13000   1.3            0              157.42361      157.42361      0.0025297836   157.42361    
     13200   1.32           0              157.60139      157.60139      0.0069272376   157.60139    
     13400   1.34           0              157.64386      157.64386      0.0030902219   157.64386    
     13600   1.36           0              157.60904      157.60904      0.0028499946   157.60904    
     13800   1.38           0              157.69531      157.69531      0.0033168217   157.69531    
     14000   1.4            0              157.85746      157.85746      0.0035184938   157.85746    
     14200   1.42           0              157.919        157.919        0.0040703473   157.919      
     14400   1.44           0              157.70841      157.70841      0.0095625646   157.70841    
     14600   1.46           0              158.02484      158.02484      0.0099950857   158.02484    
     14800   1.48           0              158.08266      158.08266      0.010034895    158.08266    
     15000   1.5            0              158.28137      158.28137      0.010837781    158.28137    
     15200   1.52           0              157.84002      157.84002      0.013239203    157.84002    
     15400   1.54           0              157.80923      157.80923      0.015513899    157.80923    
     15600   1.56           0              157.85871      157.85871      0.015284653    157.85871    
     15800   1.58           0              157.66535      157.66535      0.015926967    157.66535    
     16000   1.6            0              157.57635      157.57635      0.015967263    157.57635    
     16200   1.62           0              157.76692      157.76692      0.012901503    157.76692    
     16400   1.64           0              158.0184       158.0184       0.012111349    158.0184     
     16600   1.66           0              158.24146      158.24146      0.0097687305   158.24146    
     16800   1.68           0              157.91679      157.91679      0.0095135109   157.91679    
     17000   1.7            0              157.96489      157.96489      0.0090772827   157.96489    
     17200   1.72           0              158.14582      158.14582      0.0079943857   158.14582    
     17400   1.74           0              158.17514      158.17514      0.0078242021   158.17514    
     17600   1.76           0              158.29537      158.29537      0.0093145733   158.29537    
     17800   1.78           0              158.3418       158.3418       0.0075661295   158.3418     
     18000   1.8            0              157.81749      157.81749      0.006541784    157.81749    
     18200   1.82           0              157.81333      157.81333      0.0070770334   157.81333    
     18400   1.84           0              157.9122       157.9122       0.0075176705   157.9122     
     18600   1.86           0              157.89058      157.89058      0.0073218719   157.89058    
     18800   1.88           0              158.1654       158.1654       0.0080486662   158.1654     
     19000   1.9            0              158.34724      158.34724      0.0074215401   158.34724    
     19200   1.92           0              157.8535       157.8535       0.0080427769   157.8535     
     19400   1.94           0              157.52865      157.52865      0.0079386781   157.52865    
     19600   1.96           0              157.64308      157.64308      0.008435915    157.64308    
     19800   1.98           0              157.70855      157.70855      0.0097143826   157.70855    
     20000   2              0              157.34813      157.34813      0.011591048    157.34813    
     20200   2.02           0              157.05892      157.05892      0.010407081    157.05892    
     20400   2.04           0              157.16302      157.16302      0.011115649    157.16302    
     20600   2.06           0              157.28         157.28         0.008208882    157.28       
     20800   2.08           0              157.54002      157.54002      0.0090441289   157.54002    
     21000   2.1            0              157.56432      157.56432      0.0086716859   157.56432    
     21200   2.12           0              157.68806      157.68806      0.0049853131   157.68806    
     21400   2.14           0              158.10556      158.10556      0.005455262    158.10556    
     21600   2.16           0              158.05585      158.05585      0.0078426371   158.05585    
     21800   2.18           0              157.35826      157.35826      0.0076588291   157.35826    
     22000   2.2            0              157.68794      157.68794      0.0079425143   157.68794    
     22200   2.22           0              157.6805       157.6805       0.012072888    157.6805     
     22400   2.24           0              157.77965      157.77965      0.012622386    157.77965    
     22522   2.2522         0              158.04503      158.04503      0.012898529    158.04503    
Loop time of 496.839 on 1 procs for 20000 steps with 15000 atoms

Performance: 0.348 ns/day, 69.005 hours/ns, 40.254 timesteps/s, 603.817 katom-step/s
100.0% CPU use with 1 MPI tasks x 1 OpenMP threads

MPI task timing breakdown:
Section |  min time  |  avg time  |  max time  |%varavg| %total
---------------------------------------------------------------
Pair    | 126.65     | 126.65     | 126.65     |   0.0 | 25.49
Neigh   | 0          | 0          | 0          |   0.0 |  0.00
Comm    | 0.36416    | 0.36416    | 0.36416    |   0.0 |  0.07
Output  | 0.7815     | 0.7815     | 0.7815     |   0.0 |  0.16
Modify  | 368.25     | 368.25     | 368.25     |   0.0 | 74.12
Other   |            | 0.7989     |            |       |  0.16

Nlocal:          15000 ave       15000 max       15000 min
Histogram: 1 0 0 0 0 0 0 0 0 0
Nghost:            707 ave         707 max         707 min
Histogram: 1 0 0 0 0 0 0 0 0 0
Neighs:              0 ave           0 max           0 min
Histogram: 1 0 0 0 0 0 0 0 0 0
FullNghs:        90000 ave       90000 max       90000 min
Histogram: 1 0 0 0 0 0 0 0 0 0

Total # of neighbors = 90000
Ave neighs/atom = 6
Neighbor list builds = 0
Dangerous builds = 0
DYNAMICS_T260_DONE
Total wall time: 0:08:16
=== T = 300 K ===
LAMMPS (10 Dec 2025 - Development - patch_10Dec2025-120-ga51f9ba0e7)
OMP_NUM_THREADS environment is not set. Defaulting to 1 thread.
  using 1 OpenMP thread(s) per MPI task
Reading restart file ...
  restart file = 10 Dec 2025, LAMMPS = 10 Dec 2025
  restoring atom style spin from restart
  orthogonal box = (0 0 -1.3575) to (407.25 235.1259 1.3575)
  1 by 1 by 1 MPI processor grid
  restoring pair style hybrid/overlay from restart
  15000 atoms
  read_restart CPU = 0.003 seconds

CITE-CITE-CITE-CITE-CITE-CITE-CITE-CITE-CITE-CITE-CITE-CITE-CITE

Your simulation uses code contributions which should be cited:
- fix nve/spin command: https://doi.org/10.1016/j.jcp.2018.06.042
The log file lists these citations in BibTeX format.

CITE-CITE-CITE-CITE-CITE-CITE-CITE-CITE-CITE-CITE-CITE-CITE-CITE

Generated 0 of 0 mixed pair_coeff terms from geometric mixing rule
Neighbor list info ...
  update: every = 10 steps, delay = 20 steps, check = yes
  max neighbors/atom: 2000, page size: 100000
  master list distance cutoff = 3.558
  ghost atom cutoff = 3.558
  binsize = 1.779, bins = 229 133 2
  3 neighbor lists, perpetual/occasional/extra = 3 0 0
  (1) pair spin/exchange, perpetual
      attributes: full, newton on
      pair build: full/bin/atomonly
      stencil: full/bin/3d
      bin: standard
  (2) pair spin/dmi, perpetual, copy from (1)
      attributes: full, newton on
      pair build: copy
      stencil: none
      bin: none
  (3) pair spin/magelec, perpetual, copy from (1)
      attributes: full, newton on
      pair build: copy
      stencil: none
      bin: none
WARNING: Dump 1 includes no atom IDs and is not sorted by ID. This may complicate post-processing tasks or visualization (src/dump.cpp:220)
Setting up Verlet run ...
  Unit style    : metal
  Current step  : 2522
  Time step     : 0.0001
Per MPI rank memory allocation (min/avg/max) = 6.591 | 6.591 | 6.591 Mbytes
   Step          Time           Temp          PotEng         TotEng      c_out_mag[4]   c_out_mag[5] 
      2522   0.2522         0             -1.0275171     -1.0275171      0.030922721   -1.0275171    
      2600   0.26           0              9.0041413      9.0041413      0.030046697    9.0041413    
      2800   0.28           0              31.115321      31.115321      0.031086697    31.115321    
      3000   0.3            0              49.449407      49.449407      0.030373306    49.449407    
      3200   0.32           0              63.914823      63.914823      0.027833406    63.914823    
      3400   0.34           0              75.871217      75.871217      0.028910861    75.871217    
      3600   0.36           0              86.234942      86.234942      0.02879568     86.234942    
      3800   0.38           0              95.223138      95.223138      0.023830366    95.223138    
      4000   0.4            0              103.54919      103.54919      0.022593444    103.54919    
      4200   0.42           0              110.46429      110.46429      0.022893009    110.46429    
      4400   0.44           0              116.4685       116.4685       0.020128809    116.4685     
      4600   0.46           0              121.35164      121.35164      0.01761715     121.35164    
      4800   0.48           0              126.02642      126.02642      0.016953496    126.02642    
      5000   0.5            0              129.95384      129.95384      0.011275502    129.95384    
      5200   0.52           0              133.101        133.101        0.0099161555   133.101      
      5400   0.54           0              135.8815       135.8815       0.01096402     135.8815     
      5600   0.56           0              139.10403      139.10403      0.010722351    139.10403    
      5800   0.58           0              140.76784      140.76784      0.012367863    140.76784    
      6000   0.6            0              142.77846      142.77846      0.01267168     142.77846    
      6200   0.62           0              144.86092      144.86092      0.0083319527   144.86092    
      6400   0.64           0              146.58714      146.58714      0.010252766    146.58714    
      6600   0.66           0              148.10943      148.10943      0.0096583092   148.10943    
      6800   0.68           0              149.4047       149.4047       0.0086183379   149.4047     
      7000   0.7            0              150.57094      150.57094      0.0098836314   150.57094    
      7200   0.72           0              151.60119      151.60119      0.010958768    151.60119    
      7400   0.74           0              152.89123      152.89123      0.01277106     152.89123    
      7600   0.76           0              153.8611       153.8611       0.011668018    153.8611     
      7800   0.78           0              154.52064      154.52064      0.010654038    154.52064    
      8000   0.8            0              155.18137      155.18137      0.009711226    155.18137    
      8200   0.82           0              155.15364      155.15364      0.008372961    155.15364    
      8400   0.84           0              155.17362      155.17362      0.0058205584   155.17362    
      8600   0.86           0              156.05801      156.05801      0.0064032022   156.05801    
      8800   0.88           0              156.66001      156.66001      0.0096129871   156.66001    
      9000   0.9            0              156.92182      156.92182      0.0090043306   156.92182    
      9200   0.92           0              157.30403      157.30403      0.01099452     157.30403    
      9400   0.94           0              157.33562      157.33562      0.015455298    157.33562    
      9600   0.96           0              157.8941       157.8941       0.013880523    157.8941     
      9800   0.98           0              158.5073       158.5073       0.01257396     158.5073     
     10000   1              0              158.50703      158.50703      0.014524593    158.50703    
     10200   1.02           0              158.47084      158.47084      0.012786313    158.47084    
     10400   1.04           0              158.42635      158.42635      0.013720837    158.42635    
     10600   1.06           0              158.34837      158.34837      0.011238496    158.34837    
     10800   1.08           0              158.58985      158.58985      0.0084875217   158.58985    
     11000   1.1            0              158.81044      158.81044      0.0073503993   158.81044    
     11200   1.12           0              158.96292      158.96292      0.0099430119   158.96292    
     11400   1.14           0              158.72004      158.72004      0.0073663485   158.72004    
     11600   1.16           0              158.95341      158.95341      0.0072503349   158.95341    
     11800   1.18           0              159.34309      159.34309      0.0072814044   159.34309    
     12000   1.2            0              159.85169      159.85169      0.0058125694   159.85169    
     12200   1.22           0              159.77296      159.77296      0.0035804785   159.77296    
     12400   1.24           0              159.53877      159.53877      0.008864948    159.53877    
     12600   1.26           0              159.93426      159.93426      0.007878193    159.93426    
     12800   1.28           0              159.76987      159.76987      0.0096178701   159.76987    
     13000   1.3            0              159.5898       159.5898       0.0092722614   159.5898     
     13200   1.32           0              159.53171      159.53171      0.0099745537   159.53171    
     13400   1.34           0              159.12736      159.12736      0.012117493    159.12736    
     13600   1.36           0              158.85691      158.85691      0.010356609    158.85691    
     13800   1.38           0              159.17179      159.17179      0.010827995    159.17179    
     14000   1.4            0              158.99779      158.99779      0.0095216283   158.99779    
     14200   1.42           0              159.41295      159.41295      0.0087099767   159.41295    
     14400   1.44           0              159.4222       159.4222       0.0071079925   159.4222     
     14600   1.46           0              159.33189      159.33189      0.0070366957   159.33189    
     14800   1.48           0              160.00352      160.00352      0.007834497    160.00352    
     15000   1.5            0              160.21915      160.21915      0.0076514666   160.21915    
     15200   1.52           0              160.12471      160.12471      0.0084019196   160.12471    
     15400   1.54           0              159.51025      159.51025      0.0069568983   159.51025    
     15600   1.56           0              159.42541      159.42541      0.0070132161   159.42541    
     15800   1.58           0              159.61941      159.61941      0.0038574946   159.61941    
     16000   1.6            0              159.33377      159.33377      0.003822142    159.33377    
     16200   1.62           0              159.87518      159.87518      0.0026120498   159.87518    
     16400   1.64           0              159.84452      159.84452      0.0024136035   159.84452    
     16600   1.66           0              159.62484      159.62484      0.0028490489   159.62484    
     16800   1.68           0              160.21127      160.21127      0.0022196507   160.21127    
     17000   1.7            0              159.91034      159.91034      0.0032897664   159.91034    
     17200   1.72           0              159.87447      159.87447      0.001489057    159.87447    
     17400   1.74           0              159.5147       159.5147       0.0020530752   159.5147     
     17600   1.76           0              159.58833      159.58833      0.0026776801   159.58833    
     17800   1.78           0              159.39588      159.39588      0.0034457093   159.39588    
     18000   1.8            0              159.3735       159.3735       0.0015204565   159.3735     
     18200   1.82           0              159.24916      159.24916      0.0038173054   159.24916    
     18400   1.84           0              159.54458      159.54458      0.0080752675   159.54458    
     18600   1.86           0              159.69753      159.69753      0.0096735649   159.69753    
     18800   1.88           0              159.77064      159.77064      0.0094712645   159.77064    
     19000   1.9            0              159.73894      159.73894      0.0070200553   159.73894    
     19200   1.92           0              159.90911      159.90911      0.0082299365   159.90911    
     19400   1.94           0              159.72824      159.72824      0.0064316532   159.72824    
     19600   1.96           0              159.37604      159.37604      0.0040245367   159.37604    
     19800   1.98           0              159.6008       159.6008       0.0045283385   159.6008     
     20000   2              0              159.64651      159.64651      0.0044165619   159.64651    
     20200   2.02           0              159.49115      159.49115      0.0049599601   159.49115    
     20400   2.04           0              159.87714      159.87714      0.0065814881   159.87714    
     20600   2.06           0              159.90709      159.90709      0.0089199504   159.90709    
     20800   2.08           0              160.40477      160.40477      0.013120131    160.40477    
     21000   2.1            0              160.57836      160.57836      0.0158209      160.57836    
     21200   2.12           0              160.59341      160.59341      0.014155873    160.59341    
     21400   2.14           0              160.55294      160.55294      0.013146329    160.55294    
     21600   2.16           0              160.52518      160.52518      0.010949528    160.52518    
     21800   2.18           0              160.60831      160.60831      0.011770651    160.60831    
     22000   2.2            0              160.36234      160.36234      0.0099879003   160.36234    
     22200   2.22           0              160.44286      160.44286      0.010080837    160.44286    
     22400   2.24           0              160.14488      160.14488      0.0080094531   160.14488    
     22522   2.2522         0              160.16552      160.16552      0.0063882008   160.16552    
Loop time of 517.76 on 1 procs for 20000 steps with 15000 atoms

Performance: 0.334 ns/day, 71.911 hours/ns, 38.628 timesteps/s, 579.419 katom-step/s
99.9% CPU use with 1 MPI tasks x 1 OpenMP threads

MPI task timing breakdown:
Section |  min time  |  avg time  |  max time  |%varavg| %total
---------------------------------------------------------------
Pair    | 133.65     | 133.65     | 133.65     |   0.0 | 25.81
Neigh   | 0          | 0          | 0          |   0.0 |  0.00
Comm    | 1.4051     | 1.4051     | 1.4051     |   0.0 |  0.27
Output  | 0.86839    | 0.86839    | 0.86839    |   0.0 |  0.17
Modify  | 377.84     | 377.84     | 377.84     |   0.0 | 72.98
Other   |            | 3.993      |            |       |  0.77

Nlocal:          15000 ave       15000 max       15000 min
Histogram: 1 0 0 0 0 0 0 0 0 0
Nghost:            707 ave         707 max         707 min
Histogram: 1 0 0 0 0 0 0 0 0 0
Neighs:              0 ave           0 max           0 min
Histogram: 1 0 0 0 0 0 0 0 0 0
FullNghs:        90000 ave       90000 max       90000 min
Histogram: 1 0 0 0 0 0 0 0 0 0

Total # of neighbors = 90000
Ave neighs/atom = 6
Neighbor list builds = 0
Dangerous builds = 0
DYNAMICS_T300_DONE
Total wall time: 0:08:37
Scan complete. Per-temperature logs in logs/, trajectories as dump_pdfeir_T<T>.lammpstrj
